Minimize
2 p0_0_0 + p1_0_0 + 2 p0_0_1 + p1_0_1 + 2 p0_0_2 + p1_0_2 + 2 p0_0_3 + p1_0_3 + 2 p0_0_4 + p1_0_4 + 2 p0_0_5 + p1_0_5 + 2 p0_0_6 + p1_0_6 + 2 p0_0_7 + p1_0_7 + 2 p0_0_8 + p1_0_8 + 2 p0_0_9 + p1_0_9 + 2 p0_0_10 + p1_0_10 + 2 p0_0_11 + p1_0_11 + 2 p0_0_12 + p1_0_12 + 2 p0_0_13 + p1_0_13 + 2 p0_0_14 + p1_0_14 + 2 p0_0_15 + p1_0_15 + 2 p0_1_0 + p1_1_0 + 2 p0_1_1 + p1_1_1 + 2 p0_1_2 + p1_1_2 + 2 p0_1_3 + p1_1_3 + 2 p0_1_4 + p1_1_4 + 2 p0_1_5 + p1_1_5 + 2 p0_1_6 + p1_1_6 + 2 p0_1_7 + p1_1_7 + 2 p0_1_8 + p1_1_8 + 2 p0_1_9 + p1_1_9 + 2 p0_1_10 + p1_1_10 + 2 p0_1_11 + p1_1_11 + 2 p0_1_12 + p1_1_12 + 2 p0_1_13 + p1_1_13 + 2 p0_1_14 + p1_1_14 + 2 p0_1_15 + p1_1_15 + 2 p0_2_0 + p1_2_0 + 2 p0_2_1 + p1_2_1 + 2 p0_2_2 + p1_2_2 + 2 p0_2_3 + p1_2_3 + 2 p0_2_4 + p1_2_4 + 2 p0_2_5 + p1_2_5 + 2 p0_2_6 + p1_2_6 + 2 p0_2_7 + p1_2_7 + 2 p0_2_8 + p1_2_8 + 2 p0_2_9 + p1_2_9 + 2 p0_2_10 + p1_2_10 + 2 p0_2_11 + p1_2_11 + 2 p0_2_12 + p1_2_12 + 2 p0_2_13 + p1_2_13 + 2 p0_2_14 + p1_2_14 + 2 p0_2_15 + p1_2_15 + 2 p0_3_0 + p1_3_0 + 2 p0_3_1 + p1_3_1 + 2 p0_3_2 + p1_3_2 + 2 p0_3_3 + p1_3_3 + 2 p0_3_4 + p1_3_4 + 2 p0_3_5 + p1_3_5 + 2 p0_3_6 + p1_3_6 + 2 p0_3_7 + p1_3_7 + 2 p0_3_8 + p1_3_8 + 2 p0_3_9 + p1_3_9 + 2 p0_3_10 + p1_3_10 + 2 p0_3_11 + p1_3_11 + 2 p0_3_12 + p1_3_12 + 2 p0_3_13 + p1_3_13 + 2 p0_3_14 + p1_3_14 + 2 p0_3_15 + p1_3_15 + 2 p0_4_0 + p1_4_0 + 2 p0_4_1 + p1_4_1 + 2 p0_4_2 + p1_4_2 + 2 p0_4_3 + p1_4_3 + 2 p0_4_4 + p1_4_4 + 2 p0_4_5 + p1_4_5 + 2 p0_4_6 + p1_4_6 + 2 p0_4_7 + p1_4_7 + 2 p0_4_8 + p1_4_8 + 2 p0_4_9 + p1_4_9 + 2 p0_4_10 + p1_4_10 + 2 p0_4_11 + p1_4_11 + 2 p0_4_12 + p1_4_12 + 2 p0_4_13 + p1_4_13 + 2 p0_4_14 + p1_4_14 + 2 p0_4_15 + p1_4_15 + 2 p0_5_0 + p1_5_0 + 2 p0_5_1 + p1_5_1 + 2 p0_5_2 + p1_5_2 + 2 p0_5_3 + p1_5_3 + 2 p0_5_4 + p1_5_4 + 2 p0_5_5 + p1_5_5 + 2 p0_5_6 + p1_5_6 + 2 p0_5_7 + p1_5_7 + 2 p0_5_8 + p1_5_8 + 2 p0_5_9 + p1_5_9 + 2 p0_5_10 + p1_5_10 + 2 p0_5_11 + p1_5_11 + 2 p0_5_12 + p1_5_12 + 2 p0_5_13 + p1_5_13 + 2 p0_5_14 + p1_5_14 + 2 p0_5_15 + p1_5_15 
Subject To
x_0_0_0 = 0
x_0_0_1 = 0
x_0_0_2 = 0
x_0_0_3 = 0
x_0_1_0 = 0
x_0_1_1 = 0
x_0_1_2 = 0
x_0_1_3 = 0
x_0_2_0 = 0
x_0_2_1 = 0
x_0_2_2 = 0
x_0_2_3 = 0
x_0_3_0 = 0
x_0_3_1 = 0
x_0_3_2 = 1
x_0_3_3 = 0
x_0_4_0 = 0
x_0_4_1 = 0
x_0_4_2 = 0
x_0_4_3 = 0
x_0_5_0 = 0
x_0_5_1 = 0
x_0_5_2 = 0
x_0_5_3 = 0
x_0_6_0 = 0
x_0_6_1 = 0
x_0_6_2 = 0
x_0_6_3 = 0
x_0_7_0 = 0
x_0_7_1 = 0
x_0_7_2 = 0
x_0_7_3 = 0
x_0_8_0 = 0
x_0_8_1 = 0
x_0_8_2 = 0
x_0_8_3 = 0
x_0_9_0 = 0
x_0_9_1 = 0
x_0_9_2 = 0
x_0_9_3 = 0
x_0_10_0 = 0
x_0_10_1 = 0
x_0_10_2 = 0
x_0_10_3 = 0
x_0_11_0 = 0
x_0_11_1 = 0
x_0_11_2 = 0
x_0_11_3 = 0
x_0_12_0 = 0
x_0_12_1 = 0
x_0_12_2 = 0
x_0_12_3 = 0
x_0_13_0 = 0
x_0_13_1 = 0
x_0_13_2 = 0
x_0_13_3 = 0
x_0_14_0 = 0
x_0_14_1 = 0
x_0_14_2 = 0
x_0_14_3 = 0
x_0_15_0 = 0
x_0_15_1 = 0
x_0_15_2 = 0
x_0_15_3 = 0
x_0_16_0 = 0
x_0_16_1 = 0
x_0_16_2 = 0
x_0_16_3 = 0
x_0_17_0 = 0
x_0_17_1 = 0
x_0_17_2 = 0
x_0_17_3 = 0
x_0_18_0 = 0
x_0_18_1 = 0
x_0_18_2 = 0
x_0_18_3 = 0
x_0_19_0 = 0
x_0_19_1 = 0
x_0_19_2 = 0
x_0_19_3 = 0
x_0_20_0 = 0
x_0_20_1 = 0
x_0_20_2 = 0
x_0_20_3 = 0
x_0_21_0 = 0
x_0_21_1 = 0
x_0_21_2 = 0
x_0_21_3 = 0
x_0_22_0 = 0
x_0_22_1 = 0
x_0_22_2 = 0
x_0_22_3 = 0
x_0_23_0 = 0
x_0_23_1 = 0
x_0_23_2 = 0
x_0_23_3 = 0
x_0_24_0 = 0
x_0_24_1 = 0
x_0_24_2 = 0
x_0_24_3 = 0
x_0_25_0 = 0
x_0_25_1 = 0
x_0_25_2 = 0
x_0_25_3 = 0
x_0_26_0 = 0
x_0_26_1 = 0
x_0_26_2 = 0
x_0_26_3 = 0
x_0_27_0 = 0
x_0_27_1 = 0
x_0_27_2 = 0
x_0_27_3 = 0
x_0_28_0 = 0
x_0_28_1 = 0
x_0_28_2 = 0
x_0_28_3 = 0
x_0_29_0 = 0
x_0_29_1 = 0
x_0_29_2 = 0
x_0_29_3 = 0
x_0_30_0 = 0
x_0_30_1 = 0
x_0_30_2 = 0
x_0_30_3 = 0
x_0_31_0 = 0
x_0_31_1 = 0
x_0_31_2 = 0
x_0_31_3 = 0
+0 x_0_0_0 +0 x_0_0_1 +0 x_0_0_2 +0 x_0_0_3 +0 x_0_0_0_sb +0 x_0_0_1_sb +0 x_0_0_2_sb +0 x_0_0_3_sb -1 p0_0_0 -1 p1_0_0 >= -1
+0 x_0_0_0 +0 x_0_0_1 +0 x_0_0_2 +0 x_0_0_3 +0 x_0_0_0_sb +0 x_0_0_1_sb +0 x_0_0_2_sb -1 x_0_0_3_sb +1 p0_0_0 +1 p1_0_0 >= 0
+0 x_0_0_0 +0 x_0_0_1 +0 x_0_0_2 +0 x_0_0_3 +0 x_0_0_0_sb -1 x_0_0_1_sb +0 x_0_0_2_sb +0 x_0_0_3_sb +1 p0_0_0 +1 p1_0_0 >= 0
+0 x_0_0_0 +0 x_0_0_1 +0 x_0_0_2 +0 x_0_0_3 -1 x_0_0_0_sb +0 x_0_0_1_sb +0 x_0_0_2_sb +0 x_0_0_3_sb +1 p0_0_0 +1 p1_0_0 >= 0
+0 x_0_0_0 +0 x_0_0_1 +0 x_0_0_2 +0 x_0_0_3 +1 x_0_0_0_sb +1 x_0_0_1_sb +1 x_0_0_2_sb +1 x_0_0_3_sb +0 p0_0_0 -1 p1_0_0 >= 0
+0 x_0_0_0 +0 x_0_0_1 +0 x_0_0_2 -1 x_0_0_3 +1 x_0_0_0_sb +1 x_0_0_1_sb +0 x_0_0_2_sb +1 x_0_0_3_sb +0 p0_0_0 +1 p1_0_0 >= 0
-1 x_0_0_0 +0 x_0_0_1 -1 x_0_0_2 +0 x_0_0_3 +1 x_0_0_0_sb +0 x_0_0_1_sb +0 x_0_0_2_sb +1 x_0_0_3_sb +0 p0_0_0 -1 p1_0_0 >= -2
+1 x_0_0_0 +0 x_0_0_1 +1 x_0_0_2 +0 x_0_0_3 +1 x_0_0_0_sb +0 x_0_0_1_sb +1 x_0_0_2_sb +0 x_0_0_3_sb +0 p0_0_0 -1 p1_0_0 >= 0
+0 x_0_0_0 +0 x_0_0_1 +0 x_0_0_2 +1 x_0_0_3 +0 x_0_0_0_sb +1 x_0_0_1_sb -1 x_0_0_2_sb -1 x_0_0_3_sb +0 p0_0_0 -1 p1_0_0 >= -2
-1 x_0_0_0 +0 x_0_0_1 +0 x_0_0_2 -1 x_0_0_3 -1 x_0_0_0_sb +0 x_0_0_1_sb +0 x_0_0_2_sb +1 x_0_0_3_sb +0 p0_0_0 -1 p1_0_0 >= -3
+0 x_0_0_0 +0 x_0_0_1 +0 x_0_0_2 +1 x_0_0_3 -1 x_0_0_0_sb -1 x_0_0_1_sb -1 x_0_0_2_sb +0 x_0_0_3_sb +0 p0_0_0 -1 p1_0_0 >= -3
+1 x_0_0_0 +1 x_0_0_1 +0 x_0_0_2 +1 x_0_0_3 +0 x_0_0_0_sb +0 x_0_0_1_sb +0 x_0_0_2_sb +0 x_0_0_3_sb -1 p0_0_0 +0 p1_0_0 >= 0
+0 x_0_0_0 +0 x_0_0_1 +1 x_0_0_2 +1 x_0_0_3 +0 x_0_0_0_sb -1 x_0_0_1_sb +1 x_0_0_2_sb +0 x_0_0_3_sb +0 p0_0_0 -1 p1_0_0 >= -1
+0 x_0_0_0 +1 x_0_0_1 +0 x_0_0_2 -1 x_0_0_3 -1 x_0_0_0_sb +0 x_0_0_1_sb -1 x_0_0_2_sb +0 x_0_0_3_sb +0 p0_0_0 -1 p1_0_0 >= -3
+0 x_0_0_0 +1 x_0_0_1 +1 x_0_0_2 +0 x_0_0_3 +0 x_0_0_0_sb +0 x_0_0_1_sb +1 x_0_0_2_sb -1 x_0_0_3_sb +0 p0_0_0 -1 p1_0_0 >= -1
-1 x_0_0_0 +0 x_0_0_1 -1 x_0_0_2 +0 x_0_0_3 -1 x_0_0_0_sb +0 x_0_0_1_sb +1 x_0_0_2_sb +0 x_0_0_3_sb +0 p0_0_0 -1 p1_0_0 >= -3
+0 x_0_0_0 -1 x_0_0_1 -1 x_0_0_2 +0 x_0_0_3 +0 x_0_0_0_sb +1 x_0_0_1_sb +0 x_0_0_2_sb +1 x_0_0_3_sb +0 p0_0_0 -1 p1_0_0 >= -2
+0 x_0_0_0 -1 x_0_0_1 +0 x_0_0_2 +0 x_0_0_3 +1 x_0_0_0_sb +1 x_0_0_1_sb +0 x_0_0_2_sb +1 x_0_0_3_sb +0 p0_0_0 +1 p1_0_0 >= 0
-1 x_0_0_0 -1 x_0_0_1 +0 x_0_0_2 +1 x_0_0_3 +0 x_0_0_0_sb +1 x_0_0_1_sb +0 x_0_0_2_sb +1 x_0_0_3_sb +0 p0_0_0 -1 p1_0_0 >= -2
+0 x_0_0_0 -1 x_0_0_1 +0 x_0_0_2 +0 x_0_0_3 +1 x_0_0_0_sb +0 x_0_0_1_sb +1 x_0_0_2_sb +1 x_0_0_3_sb +0 p0_0_0 -1 p1_0_0 >= -1
-1 x_0_0_0 +0 x_0_0_1 -1 x_0_0_2 +0 x_0_0_3 +1 x_0_0_0_sb +1 x_0_0_1_sb +0 x_0_0_2_sb +0 x_0_0_3_sb +0 p0_0_0 -1 p1_0_0 >= -2
+0 x_0_0_0 +1 x_0_0_1 -1 x_0_0_2 -1 x_0_0_3 +0 x_0_0_0_sb +0 x_0_0_1_sb +0 x_0_0_2_sb +1 x_0_0_3_sb +0 p0_0_0 -1 p1_0_0 >= -2
-1 x_0_0_0 -1 x_0_0_1 +0 x_0_0_2 -1 x_0_0_3 +0 x_0_0_0_sb +1 x_0_0_1_sb +0 x_0_0_2_sb -1 x_0_0_3_sb +0 p0_0_0 -1 p1_0_0 >= -4
-1 x_0_0_0 +1 x_0_0_1 +0 x_0_0_2 +1 x_0_0_3 +0 x_0_0_0_sb +1 x_0_0_1_sb +0 x_0_0_2_sb +1 x_0_0_3_sb +0 p0_0_0 +1 p1_0_0 >= 0
+0 x_0_0_0 +0 x_0_0_1 +0 x_0_0_2 +0 x_0_0_3 +1 x_0_0_0_sb -1 x_0_0_1_sb +0 x_0_0_2_sb -1 x_0_0_3_sb +0 p0_0_0 +1 p1_0_0 >= -1
+1 x_0_0_0 +0 x_0_0_1 +1 x_0_0_2 +0 x_0_0_3 +1 x_0_0_0_sb -1 x_0_0_1_sb +0 x_0_0_2_sb +0 x_0_0_3_sb +0 p0_0_0 -1 p1_0_0 >= -1
+0 x_0_0_0 +1 x_0_0_1 +0 x_0_0_2 +1 x_0_0_3 +0 x_0_0_0_sb -1 x_0_0_1_sb -1 x_0_0_2_sb +0 x_0_0_3_sb +0 p0_0_0 -1 p1_0_0 >= -2
+1 x_0_0_0 -1 x_0_0_1 +0 x_0_0_2 -1 x_0_0_3 +0 x_0_0_0_sb +0 x_0_0_1_sb +1 x_0_0_2_sb +0 x_0_0_3_sb +0 p0_0_0 +0 p1_0_0 >= -1
+1 x_0_0_0 -1 x_0_0_1 -1 x_0_0_2 +0 x_0_0_3 +0 x_0_0_0_sb +0 x_0_0_1_sb +1 x_0_0_2_sb -1 x_0_0_3_sb +0 p0_0_0 -1 p1_0_0 >= -3
+1 x_0_0_0 -1 x_0_0_1 +0 x_0_0_2 -1 x_0_0_3 +0 x_0_0_0_sb +0 x_0_0_1_sb +0 x_0_0_2_sb +0 x_0_0_3_sb +0 p0_0_0 +1 p1_0_0 >= -1
+1 x_0_0_0 +0 x_0_0_1 +0 x_0_0_2 +0 x_0_0_3 -1 x_0_0_0_sb +1 x_0_0_1_sb +0 x_0_0_2_sb -1 x_0_0_3_sb +0 p0_0_0 +1 p1_0_0 >= -1
+1 x_0_0_0 +0 x_0_0_1 +0 x_0_0_2 +0 x_0_0_3 -1 x_0_0_0_sb -1 x_0_0_1_sb +0 x_0_0_2_sb +1 x_0_0_3_sb +0 p0_0_0 +1 p1_0_0 >= -1
-1 x_0_0_0 -1 x_0_0_1 +0 x_0_0_2 +1 x_0_0_3 +1 x_0_0_0_sb +0 x_0_0_1_sb +0 x_0_0_2_sb +0 x_0_0_3_sb +0 p0_0_0 +1 p1_0_0 >= -1
-1 x_0_0_0 +1 x_0_0_1 +0 x_0_0_2 -1 x_0_0_3 +1 x_0_0_0_sb +0 x_0_0_1_sb +0 x_0_0_2_sb +0 x_0_0_3_sb +0 p0_0_0 +1 p1_0_0 >= -1
+0 x_0_0_0 -1 x_0_0_1 +0 x_0_0_2 -1 x_0_0_3 +0 x_0_0_0_sb -1 x_0_0_1_sb +0 x_0_0_2_sb -1 x_0_0_3_sb +0 p0_0_0 +1 p1_0_0 >= -3
+1 x_0_0_0 +1 x_0_0_1 +0 x_0_0_2 +1 x_0_0_3 +0 x_0_0_0_sb +0 x_0_0_1_sb -1 x_0_0_2_sb +0 x_0_0_3_sb +0 p0_0_0 +0 p1_0_0 >= 0
-1 x_0_0_0 +0 x_0_0_1 +1 x_0_0_2 -1 x_0_0_3 +0 x_0_0_0_sb -1 x_0_0_1_sb -1 x_0_0_2_sb +0 x_0_0_3_sb +0 p0_0_0 -1 p1_0_0 >= -4
+1 x_0_0_0 +1 x_0_0_1 +0 x_0_0_2 -1 x_0_0_3 +1 x_0_0_0_sb +1 x_0_0_1_sb +0 x_0_0_2_sb -1 x_0_0_3_sb +0 p0_0_0 -1 p1_0_0 >= -2
+1 x_0_0_0 +0 x_0_0_1 +1 x_0_0_2 +0 x_0_0_3 +0 x_0_0_0_sb +1 x_0_0_1_sb +1 x_0_0_2_sb +1 x_0_0_3_sb +0 p0_0_0 -1 p1_0_0 >= 0
+1 x_0_0_0 +0 x_0_0_1 -1 x_0_0_2 -1 x_0_0_3 -1 x_0_0_0_sb -1 x_0_0_1_sb +0 x_0_0_2_sb -1 x_0_0_3_sb +0 p0_0_0 -1 p1_0_0 >= -5
+0 x_0_0_0 +0 x_0_0_1 +1 x_0_0_2 +1 x_0_0_3 -1 x_0_0_0_sb +0 x_0_0_1_sb -1 x_0_0_2_sb +0 x_0_0_3_sb +0 p0_0_0 -1 p1_0_0 >= -2
+0 x_0_0_0 +0 x_0_0_1 +1 x_0_0_2 +0 x_0_0_3 +1 x_0_0_0_sb -1 x_0_0_1_sb +0 x_0_0_2_sb -1 x_0_0_3_sb +0 p0_0_0 +0 p1_0_0 >= -1
+0 x_0_0_0 -1 x_0_0_1 +0 x_0_0_2 -1 x_0_0_3 +0 x_0_0_0_sb +1 x_0_0_1_sb +0 x_0_0_2_sb +1 x_0_0_3_sb +0 p0_0_0 +1 p1_0_0 >= -1
+0 x_0_0_0 +1 x_0_0_1 +0 x_0_0_2 +1 x_0_0_3 +0 x_0_0_0_sb -1 x_0_0_1_sb +0 x_0_0_2_sb -1 x_0_0_3_sb +0 p0_0_0 +1 p1_0_0 >= -1
+1 x_0_0_0 -1 x_0_0_1 +1 x_0_0_2 -1 x_0_0_3 +1 x_0_0_0_sb +0 x_0_0_1_sb +0 x_0_0_2_sb +0 x_0_0_3_sb +0 p0_0_0 +0 p1_0_0 >= -1
+1 x_0_0_0 +0 x_0_0_1 +0 x_0_0_2 +0 x_0_0_3 +1 x_0_0_0_sb -1 x_0_0_1_sb +1 x_0_0_2_sb -1 x_0_0_3_sb +0 p0_0_0 +0 p1_0_0 >= -1
+0 x_0_0_0 -1 x_0_0_1 +0 x_0_0_2 -1 x_0_0_3 +1 x_0_0_0_sb -1 x_0_0_1_sb -1 x_0_0_2_sb -1 x_0_0_3_sb +0 p0_0_0 +0 p1_0_0 >= -4
+1 x_0_0_0 +0 x_0_0_1 +0 x_0_0_2 +1 x_0_0_3 +0 x_0_0_0_sb -1 x_0_0_1_sb -1 x_0_0_2_sb +1 x_0_0_3_sb +0 p0_0_0 -1 p1_0_0 >= -2
+0 x_0_0_0 +0 x_0_0_1 -1 x_0_0_2 +1 x_0_0_3 -1 x_0_0_0_sb +1 x_0_0_1_sb +0 x_0_0_2_sb -1 x_0_0_3_sb +0 p0_0_0 -1 p1_0_0 >= -3
+0 x_0_0_0 +1 x_0_0_1 +0 x_0_0_2 +1 x_0_0_3 -1 x_0_0_0_sb -1 x_0_0_1_sb +0 x_0_0_2_sb +1 x_0_0_3_sb +0 p0_0_0 -1 p1_0_0 >= -2
-1 x_0_0_0 +1 x_0_0_1 +0 x_0_0_2 -1 x_0_0_3 +0 x_0_0_0_sb +0 x_0_0_1_sb -1 x_0_0_2_sb +1 x_0_0_3_sb +0 p0_0_0 -1 p1_0_0 >= -3
-1 x_0_0_0 +0 x_0_0_1 +0 x_0_0_2 +0 x_0_0_3 -1 x_0_0_0_sb +1 x_0_0_1_sb +0 x_0_0_2_sb -1 x_0_0_3_sb +0 p0_0_0 -1 p1_0_0 >= -3
+0 x_0_0_0 +0 x_0_0_1 -1 x_0_0_2 +0 x_0_0_3 +1 x_0_0_0_sb +1 x_0_0_1_sb +0 x_0_0_2_sb +1 x_0_0_3_sb +0 p0_0_0 +0 p1_0_0 >= 0
+0 x_0_2_0 +0 x_0_2_1 +0 x_0_2_2 +0 x_0_2_3 +0 x_0_1_0_sb +0 x_0_1_1_sb +0 x_0_1_2_sb +0 x_0_1_3_sb -1 p0_0_1 -1 p1_0_1 >= -1
+0 x_0_2_0 +0 x_0_2_1 +0 x_0_2_2 +0 x_0_2_3 +0 x_0_1_0_sb +0 x_0_1_1_sb +0 x_0_1_2_sb -1 x_0_1_3_sb +1 p0_0_1 +1 p1_0_1 >= 0
+0 x_0_2_0 +0 x_0_2_1 +0 x_0_2_2 +0 x_0_2_3 +0 x_0_1_0_sb -1 x_0_1_1_sb +0 x_0_1_2_sb +0 x_0_1_3_sb +1 p0_0_1 +1 p1_0_1 >= 0
+0 x_0_2_0 +0 x_0_2_1 +0 x_0_2_2 +0 x_0_2_3 -1 x_0_1_0_sb +0 x_0_1_1_sb +0 x_0_1_2_sb +0 x_0_1_3_sb +1 p0_0_1 +1 p1_0_1 >= 0
+0 x_0_2_0 +0 x_0_2_1 +0 x_0_2_2 +0 x_0_2_3 +1 x_0_1_0_sb +1 x_0_1_1_sb +1 x_0_1_2_sb +1 x_0_1_3_sb +0 p0_0_1 -1 p1_0_1 >= 0
+0 x_0_2_0 +0 x_0_2_1 +0 x_0_2_2 -1 x_0_2_3 +1 x_0_1_0_sb +1 x_0_1_1_sb +0 x_0_1_2_sb +1 x_0_1_3_sb +0 p0_0_1 +1 p1_0_1 >= 0
-1 x_0_2_0 +0 x_0_2_1 -1 x_0_2_2 +0 x_0_2_3 +1 x_0_1_0_sb +0 x_0_1_1_sb +0 x_0_1_2_sb +1 x_0_1_3_sb +0 p0_0_1 -1 p1_0_1 >= -2
+1 x_0_2_0 +0 x_0_2_1 +1 x_0_2_2 +0 x_0_2_3 +1 x_0_1_0_sb +0 x_0_1_1_sb +1 x_0_1_2_sb +0 x_0_1_3_sb +0 p0_0_1 -1 p1_0_1 >= 0
+0 x_0_2_0 +0 x_0_2_1 +0 x_0_2_2 +1 x_0_2_3 +0 x_0_1_0_sb +1 x_0_1_1_sb -1 x_0_1_2_sb -1 x_0_1_3_sb +0 p0_0_1 -1 p1_0_1 >= -2
-1 x_0_2_0 +0 x_0_2_1 +0 x_0_2_2 -1 x_0_2_3 -1 x_0_1_0_sb +0 x_0_1_1_sb +0 x_0_1_2_sb +1 x_0_1_3_sb +0 p0_0_1 -1 p1_0_1 >= -3
+0 x_0_2_0 +0 x_0_2_1 +0 x_0_2_2 +1 x_0_2_3 -1 x_0_1_0_sb -1 x_0_1_1_sb -1 x_0_1_2_sb +0 x_0_1_3_sb +0 p0_0_1 -1 p1_0_1 >= -3
+1 x_0_2_0 +1 x_0_2_1 +0 x_0_2_2 +1 x_0_2_3 +0 x_0_1_0_sb +0 x_0_1_1_sb +0 x_0_1_2_sb +0 x_0_1_3_sb -1 p0_0_1 +0 p1_0_1 >= 0
+0 x_0_2_0 +0 x_0_2_1 +1 x_0_2_2 +1 x_0_2_3 +0 x_0_1_0_sb -1 x_0_1_1_sb +1 x_0_1_2_sb +0 x_0_1_3_sb +0 p0_0_1 -1 p1_0_1 >= -1
+0 x_0_2_0 +1 x_0_2_1 +0 x_0_2_2 -1 x_0_2_3 -1 x_0_1_0_sb +0 x_0_1_1_sb -1 x_0_1_2_sb +0 x_0_1_3_sb +0 p0_0_1 -1 p1_0_1 >= -3
+0 x_0_2_0 +1 x_0_2_1 +1 x_0_2_2 +0 x_0_2_3 +0 x_0_1_0_sb +0 x_0_1_1_sb +1 x_0_1_2_sb -1 x_0_1_3_sb +0 p0_0_1 -1 p1_0_1 >= -1
-1 x_0_2_0 +0 x_0_2_1 -1 x_0_2_2 +0 x_0_2_3 -1 x_0_1_0_sb +0 x_0_1_1_sb +1 x_0_1_2_sb +0 x_0_1_3_sb +0 p0_0_1 -1 p1_0_1 >= -3
+0 x_0_2_0 -1 x_0_2_1 -1 x_0_2_2 +0 x_0_2_3 +0 x_0_1_0_sb +1 x_0_1_1_sb +0 x_0_1_2_sb +1 x_0_1_3_sb +0 p0_0_1 -1 p1_0_1 >= -2
+0 x_0_2_0 -1 x_0_2_1 +0 x_0_2_2 +0 x_0_2_3 +1 x_0_1_0_sb +1 x_0_1_1_sb +0 x_0_1_2_sb +1 x_0_1_3_sb +0 p0_0_1 +1 p1_0_1 >= 0
-1 x_0_2_0 -1 x_0_2_1 +0 x_0_2_2 +1 x_0_2_3 +0 x_0_1_0_sb +1 x_0_1_1_sb +0 x_0_1_2_sb +1 x_0_1_3_sb +0 p0_0_1 -1 p1_0_1 >= -2
+0 x_0_2_0 -1 x_0_2_1 +0 x_0_2_2 +0 x_0_2_3 +1 x_0_1_0_sb +0 x_0_1_1_sb +1 x_0_1_2_sb +1 x_0_1_3_sb +0 p0_0_1 -1 p1_0_1 >= -1
-1 x_0_2_0 +0 x_0_2_1 -1 x_0_2_2 +0 x_0_2_3 +1 x_0_1_0_sb +1 x_0_1_1_sb +0 x_0_1_2_sb +0 x_0_1_3_sb +0 p0_0_1 -1 p1_0_1 >= -2
+0 x_0_2_0 +1 x_0_2_1 -1 x_0_2_2 -1 x_0_2_3 +0 x_0_1_0_sb +0 x_0_1_1_sb +0 x_0_1_2_sb +1 x_0_1_3_sb +0 p0_0_1 -1 p1_0_1 >= -2
-1 x_0_2_0 -1 x_0_2_1 +0 x_0_2_2 -1 x_0_2_3 +0 x_0_1_0_sb +1 x_0_1_1_sb +0 x_0_1_2_sb -1 x_0_1_3_sb +0 p0_0_1 -1 p1_0_1 >= -4
-1 x_0_2_0 +1 x_0_2_1 +0 x_0_2_2 +1 x_0_2_3 +0 x_0_1_0_sb +1 x_0_1_1_sb +0 x_0_1_2_sb +1 x_0_1_3_sb +0 p0_0_1 +1 p1_0_1 >= 0
+0 x_0_2_0 +0 x_0_2_1 +0 x_0_2_2 +0 x_0_2_3 +1 x_0_1_0_sb -1 x_0_1_1_sb +0 x_0_1_2_sb -1 x_0_1_3_sb +0 p0_0_1 +1 p1_0_1 >= -1
+1 x_0_2_0 +0 x_0_2_1 +1 x_0_2_2 +0 x_0_2_3 +1 x_0_1_0_sb -1 x_0_1_1_sb +0 x_0_1_2_sb +0 x_0_1_3_sb +0 p0_0_1 -1 p1_0_1 >= -1
+0 x_0_2_0 +1 x_0_2_1 +0 x_0_2_2 +1 x_0_2_3 +0 x_0_1_0_sb -1 x_0_1_1_sb -1 x_0_1_2_sb +0 x_0_1_3_sb +0 p0_0_1 -1 p1_0_1 >= -2
+1 x_0_2_0 -1 x_0_2_1 +0 x_0_2_2 -1 x_0_2_3 +0 x_0_1_0_sb +0 x_0_1_1_sb +1 x_0_1_2_sb +0 x_0_1_3_sb +0 p0_0_1 +0 p1_0_1 >= -1
+1 x_0_2_0 -1 x_0_2_1 -1 x_0_2_2 +0 x_0_2_3 +0 x_0_1_0_sb +0 x_0_1_1_sb +1 x_0_1_2_sb -1 x_0_1_3_sb +0 p0_0_1 -1 p1_0_1 >= -3
+1 x_0_2_0 -1 x_0_2_1 +0 x_0_2_2 -1 x_0_2_3 +0 x_0_1_0_sb +0 x_0_1_1_sb +0 x_0_1_2_sb +0 x_0_1_3_sb +0 p0_0_1 +1 p1_0_1 >= -1
+1 x_0_2_0 +0 x_0_2_1 +0 x_0_2_2 +0 x_0_2_3 -1 x_0_1_0_sb +1 x_0_1_1_sb +0 x_0_1_2_sb -1 x_0_1_3_sb +0 p0_0_1 +1 p1_0_1 >= -1
+1 x_0_2_0 +0 x_0_2_1 +0 x_0_2_2 +0 x_0_2_3 -1 x_0_1_0_sb -1 x_0_1_1_sb +0 x_0_1_2_sb +1 x_0_1_3_sb +0 p0_0_1 +1 p1_0_1 >= -1
-1 x_0_2_0 -1 x_0_2_1 +0 x_0_2_2 +1 x_0_2_3 +1 x_0_1_0_sb +0 x_0_1_1_sb +0 x_0_1_2_sb +0 x_0_1_3_sb +0 p0_0_1 +1 p1_0_1 >= -1
-1 x_0_2_0 +1 x_0_2_1 +0 x_0_2_2 -1 x_0_2_3 +1 x_0_1_0_sb +0 x_0_1_1_sb +0 x_0_1_2_sb +0 x_0_1_3_sb +0 p0_0_1 +1 p1_0_1 >= -1
+0 x_0_2_0 -1 x_0_2_1 +0 x_0_2_2 -1 x_0_2_3 +0 x_0_1_0_sb -1 x_0_1_1_sb +0 x_0_1_2_sb -1 x_0_1_3_sb +0 p0_0_1 +1 p1_0_1 >= -3
+1 x_0_2_0 +1 x_0_2_1 +0 x_0_2_2 +1 x_0_2_3 +0 x_0_1_0_sb +0 x_0_1_1_sb -1 x_0_1_2_sb +0 x_0_1_3_sb +0 p0_0_1 +0 p1_0_1 >= 0
-1 x_0_2_0 +0 x_0_2_1 +1 x_0_2_2 -1 x_0_2_3 +0 x_0_1_0_sb -1 x_0_1_1_sb -1 x_0_1_2_sb +0 x_0_1_3_sb +0 p0_0_1 -1 p1_0_1 >= -4
+1 x_0_2_0 +1 x_0_2_1 +0 x_0_2_2 -1 x_0_2_3 +1 x_0_1_0_sb +1 x_0_1_1_sb +0 x_0_1_2_sb -1 x_0_1_3_sb +0 p0_0_1 -1 p1_0_1 >= -2
+1 x_0_2_0 +0 x_0_2_1 +1 x_0_2_2 +0 x_0_2_3 +0 x_0_1_0_sb +1 x_0_1_1_sb +1 x_0_1_2_sb +1 x_0_1_3_sb +0 p0_0_1 -1 p1_0_1 >= 0
+1 x_0_2_0 +0 x_0_2_1 -1 x_0_2_2 -1 x_0_2_3 -1 x_0_1_0_sb -1 x_0_1_1_sb +0 x_0_1_2_sb -1 x_0_1_3_sb +0 p0_0_1 -1 p1_0_1 >= -5
+0 x_0_2_0 +0 x_0_2_1 +1 x_0_2_2 +1 x_0_2_3 -1 x_0_1_0_sb +0 x_0_1_1_sb -1 x_0_1_2_sb +0 x_0_1_3_sb +0 p0_0_1 -1 p1_0_1 >= -2
+0 x_0_2_0 +0 x_0_2_1 +1 x_0_2_2 +0 x_0_2_3 +1 x_0_1_0_sb -1 x_0_1_1_sb +0 x_0_1_2_sb -1 x_0_1_3_sb +0 p0_0_1 +0 p1_0_1 >= -1
+0 x_0_2_0 -1 x_0_2_1 +0 x_0_2_2 -1 x_0_2_3 +0 x_0_1_0_sb +1 x_0_1_1_sb +0 x_0_1_2_sb +1 x_0_1_3_sb +0 p0_0_1 +1 p1_0_1 >= -1
+0 x_0_2_0 +1 x_0_2_1 +0 x_0_2_2 +1 x_0_2_3 +0 x_0_1_0_sb -1 x_0_1_1_sb +0 x_0_1_2_sb -1 x_0_1_3_sb +0 p0_0_1 +1 p1_0_1 >= -1
+1 x_0_2_0 -1 x_0_2_1 +1 x_0_2_2 -1 x_0_2_3 +1 x_0_1_0_sb +0 x_0_1_1_sb +0 x_0_1_2_sb +0 x_0_1_3_sb +0 p0_0_1 +0 p1_0_1 >= -1
+1 x_0_2_0 +0 x_0_2_1 +0 x_0_2_2 +0 x_0_2_3 +1 x_0_1_0_sb -1 x_0_1_1_sb +1 x_0_1_2_sb -1 x_0_1_3_sb +0 p0_0_1 +0 p1_0_1 >= -1
+0 x_0_2_0 -1 x_0_2_1 +0 x_0_2_2 -1 x_0_2_3 +1 x_0_1_0_sb -1 x_0_1_1_sb -1 x_0_1_2_sb -1 x_0_1_3_sb +0 p0_0_1 +0 p1_0_1 >= -4
+1 x_0_2_0 +0 x_0_2_1 +0 x_0_2_2 +1 x_0_2_3 +0 x_0_1_0_sb -1 x_0_1_1_sb -1 x_0_1_2_sb +1 x_0_1_3_sb +0 p0_0_1 -1 p1_0_1 >= -2
+0 x_0_2_0 +0 x_0_2_1 -1 x_0_2_2 +1 x_0_2_3 -1 x_0_1_0_sb +1 x_0_1_1_sb +0 x_0_1_2_sb -1 x_0_1_3_sb +0 p0_0_1 -1 p1_0_1 >= -3
+0 x_0_2_0 +1 x_0_2_1 +0 x_0_2_2 +1 x_0_2_3 -1 x_0_1_0_sb -1 x_0_1_1_sb +0 x_0_1_2_sb +1 x_0_1_3_sb +0 p0_0_1 -1 p1_0_1 >= -2
-1 x_0_2_0 +1 x_0_2_1 +0 x_0_2_2 -1 x_0_2_3 +0 x_0_1_0_sb +0 x_0_1_1_sb -1 x_0_1_2_sb +1 x_0_1_3_sb +0 p0_0_1 -1 p1_0_1 >= -3
-1 x_0_2_0 +0 x_0_2_1 +0 x_0_2_2 +0 x_0_2_3 -1 x_0_1_0_sb +1 x_0_1_1_sb +0 x_0_1_2_sb -1 x_0_1_3_sb +0 p0_0_1 -1 p1_0_1 >= -3
+0 x_0_2_0 +0 x_0_2_1 -1 x_0_2_2 +0 x_0_2_3 +1 x_0_1_0_sb +1 x_0_1_1_sb +0 x_0_1_2_sb +1 x_0_1_3_sb +0 p0_0_1 +0 p1_0_1 >= 0
+0 x_0_4_0 +0 x_0_4_1 +0 x_0_4_2 +0 x_0_4_3 +0 x_0_2_0_sb +0 x_0_2_1_sb +0 x_0_2_2_sb +0 x_0_2_3_sb -1 p0_0_2 -1 p1_0_2 >= -1
+0 x_0_4_0 +0 x_0_4_1 +0 x_0_4_2 +0 x_0_4_3 +0 x_0_2_0_sb +0 x_0_2_1_sb +0 x_0_2_2_sb -1 x_0_2_3_sb +1 p0_0_2 +1 p1_0_2 >= 0
+0 x_0_4_0 +0 x_0_4_1 +0 x_0_4_2 +0 x_0_4_3 +0 x_0_2_0_sb -1 x_0_2_1_sb +0 x_0_2_2_sb +0 x_0_2_3_sb +1 p0_0_2 +1 p1_0_2 >= 0
+0 x_0_4_0 +0 x_0_4_1 +0 x_0_4_2 +0 x_0_4_3 -1 x_0_2_0_sb +0 x_0_2_1_sb +0 x_0_2_2_sb +0 x_0_2_3_sb +1 p0_0_2 +1 p1_0_2 >= 0
+0 x_0_4_0 +0 x_0_4_1 +0 x_0_4_2 +0 x_0_4_3 +1 x_0_2_0_sb +1 x_0_2_1_sb +1 x_0_2_2_sb +1 x_0_2_3_sb +0 p0_0_2 -1 p1_0_2 >= 0
+0 x_0_4_0 +0 x_0_4_1 +0 x_0_4_2 -1 x_0_4_3 +1 x_0_2_0_sb +1 x_0_2_1_sb +0 x_0_2_2_sb +1 x_0_2_3_sb +0 p0_0_2 +1 p1_0_2 >= 0
-1 x_0_4_0 +0 x_0_4_1 -1 x_0_4_2 +0 x_0_4_3 +1 x_0_2_0_sb +0 x_0_2_1_sb +0 x_0_2_2_sb +1 x_0_2_3_sb +0 p0_0_2 -1 p1_0_2 >= -2
+1 x_0_4_0 +0 x_0_4_1 +1 x_0_4_2 +0 x_0_4_3 +1 x_0_2_0_sb +0 x_0_2_1_sb +1 x_0_2_2_sb +0 x_0_2_3_sb +0 p0_0_2 -1 p1_0_2 >= 0
+0 x_0_4_0 +0 x_0_4_1 +0 x_0_4_2 +1 x_0_4_3 +0 x_0_2_0_sb +1 x_0_2_1_sb -1 x_0_2_2_sb -1 x_0_2_3_sb +0 p0_0_2 -1 p1_0_2 >= -2
-1 x_0_4_0 +0 x_0_4_1 +0 x_0_4_2 -1 x_0_4_3 -1 x_0_2_0_sb +0 x_0_2_1_sb +0 x_0_2_2_sb +1 x_0_2_3_sb +0 p0_0_2 -1 p1_0_2 >= -3
+0 x_0_4_0 +0 x_0_4_1 +0 x_0_4_2 +1 x_0_4_3 -1 x_0_2_0_sb -1 x_0_2_1_sb -1 x_0_2_2_sb +0 x_0_2_3_sb +0 p0_0_2 -1 p1_0_2 >= -3
+1 x_0_4_0 +1 x_0_4_1 +0 x_0_4_2 +1 x_0_4_3 +0 x_0_2_0_sb +0 x_0_2_1_sb +0 x_0_2_2_sb +0 x_0_2_3_sb -1 p0_0_2 +0 p1_0_2 >= 0
+0 x_0_4_0 +0 x_0_4_1 +1 x_0_4_2 +1 x_0_4_3 +0 x_0_2_0_sb -1 x_0_2_1_sb +1 x_0_2_2_sb +0 x_0_2_3_sb +0 p0_0_2 -1 p1_0_2 >= -1
+0 x_0_4_0 +1 x_0_4_1 +0 x_0_4_2 -1 x_0_4_3 -1 x_0_2_0_sb +0 x_0_2_1_sb -1 x_0_2_2_sb +0 x_0_2_3_sb +0 p0_0_2 -1 p1_0_2 >= -3
+0 x_0_4_0 +1 x_0_4_1 +1 x_0_4_2 +0 x_0_4_3 +0 x_0_2_0_sb +0 x_0_2_1_sb +1 x_0_2_2_sb -1 x_0_2_3_sb +0 p0_0_2 -1 p1_0_2 >= -1
-1 x_0_4_0 +0 x_0_4_1 -1 x_0_4_2 +0 x_0_4_3 -1 x_0_2_0_sb +0 x_0_2_1_sb +1 x_0_2_2_sb +0 x_0_2_3_sb +0 p0_0_2 -1 p1_0_2 >= -3
+0 x_0_4_0 -1 x_0_4_1 -1 x_0_4_2 +0 x_0_4_3 +0 x_0_2_0_sb +1 x_0_2_1_sb +0 x_0_2_2_sb +1 x_0_2_3_sb +0 p0_0_2 -1 p1_0_2 >= -2
+0 x_0_4_0 -1 x_0_4_1 +0 x_0_4_2 +0 x_0_4_3 +1 x_0_2_0_sb +1 x_0_2_1_sb +0 x_0_2_2_sb +1 x_0_2_3_sb +0 p0_0_2 +1 p1_0_2 >= 0
-1 x_0_4_0 -1 x_0_4_1 +0 x_0_4_2 +1 x_0_4_3 +0 x_0_2_0_sb +1 x_0_2_1_sb +0 x_0_2_2_sb +1 x_0_2_3_sb +0 p0_0_2 -1 p1_0_2 >= -2
+0 x_0_4_0 -1 x_0_4_1 +0 x_0_4_2 +0 x_0_4_3 +1 x_0_2_0_sb +0 x_0_2_1_sb +1 x_0_2_2_sb +1 x_0_2_3_sb +0 p0_0_2 -1 p1_0_2 >= -1
-1 x_0_4_0 +0 x_0_4_1 -1 x_0_4_2 +0 x_0_4_3 +1 x_0_2_0_sb +1 x_0_2_1_sb +0 x_0_2_2_sb +0 x_0_2_3_sb +0 p0_0_2 -1 p1_0_2 >= -2
+0 x_0_4_0 +1 x_0_4_1 -1 x_0_4_2 -1 x_0_4_3 +0 x_0_2_0_sb +0 x_0_2_1_sb +0 x_0_2_2_sb +1 x_0_2_3_sb +0 p0_0_2 -1 p1_0_2 >= -2
-1 x_0_4_0 -1 x_0_4_1 +0 x_0_4_2 -1 x_0_4_3 +0 x_0_2_0_sb +1 x_0_2_1_sb +0 x_0_2_2_sb -1 x_0_2_3_sb +0 p0_0_2 -1 p1_0_2 >= -4
-1 x_0_4_0 +1 x_0_4_1 +0 x_0_4_2 +1 x_0_4_3 +0 x_0_2_0_sb +1 x_0_2_1_sb +0 x_0_2_2_sb +1 x_0_2_3_sb +0 p0_0_2 +1 p1_0_2 >= 0
+0 x_0_4_0 +0 x_0_4_1 +0 x_0_4_2 +0 x_0_4_3 +1 x_0_2_0_sb -1 x_0_2_1_sb +0 x_0_2_2_sb -1 x_0_2_3_sb +0 p0_0_2 +1 p1_0_2 >= -1
+1 x_0_4_0 +0 x_0_4_1 +1 x_0_4_2 +0 x_0_4_3 +1 x_0_2_0_sb -1 x_0_2_1_sb +0 x_0_2_2_sb +0 x_0_2_3_sb +0 p0_0_2 -1 p1_0_2 >= -1
+0 x_0_4_0 +1 x_0_4_1 +0 x_0_4_2 +1 x_0_4_3 +0 x_0_2_0_sb -1 x_0_2_1_sb -1 x_0_2_2_sb +0 x_0_2_3_sb +0 p0_0_2 -1 p1_0_2 >= -2
+1 x_0_4_0 -1 x_0_4_1 +0 x_0_4_2 -1 x_0_4_3 +0 x_0_2_0_sb +0 x_0_2_1_sb +1 x_0_2_2_sb +0 x_0_2_3_sb +0 p0_0_2 +0 p1_0_2 >= -1
+1 x_0_4_0 -1 x_0_4_1 -1 x_0_4_2 +0 x_0_4_3 +0 x_0_2_0_sb +0 x_0_2_1_sb +1 x_0_2_2_sb -1 x_0_2_3_sb +0 p0_0_2 -1 p1_0_2 >= -3
+1 x_0_4_0 -1 x_0_4_1 +0 x_0_4_2 -1 x_0_4_3 +0 x_0_2_0_sb +0 x_0_2_1_sb +0 x_0_2_2_sb +0 x_0_2_3_sb +0 p0_0_2 +1 p1_0_2 >= -1
+1 x_0_4_0 +0 x_0_4_1 +0 x_0_4_2 +0 x_0_4_3 -1 x_0_2_0_sb +1 x_0_2_1_sb +0 x_0_2_2_sb -1 x_0_2_3_sb +0 p0_0_2 +1 p1_0_2 >= -1
+1 x_0_4_0 +0 x_0_4_1 +0 x_0_4_2 +0 x_0_4_3 -1 x_0_2_0_sb -1 x_0_2_1_sb +0 x_0_2_2_sb +1 x_0_2_3_sb +0 p0_0_2 +1 p1_0_2 >= -1
-1 x_0_4_0 -1 x_0_4_1 +0 x_0_4_2 +1 x_0_4_3 +1 x_0_2_0_sb +0 x_0_2_1_sb +0 x_0_2_2_sb +0 x_0_2_3_sb +0 p0_0_2 +1 p1_0_2 >= -1
-1 x_0_4_0 +1 x_0_4_1 +0 x_0_4_2 -1 x_0_4_3 +1 x_0_2_0_sb +0 x_0_2_1_sb +0 x_0_2_2_sb +0 x_0_2_3_sb +0 p0_0_2 +1 p1_0_2 >= -1
+0 x_0_4_0 -1 x_0_4_1 +0 x_0_4_2 -1 x_0_4_3 +0 x_0_2_0_sb -1 x_0_2_1_sb +0 x_0_2_2_sb -1 x_0_2_3_sb +0 p0_0_2 +1 p1_0_2 >= -3
+1 x_0_4_0 +1 x_0_4_1 +0 x_0_4_2 +1 x_0_4_3 +0 x_0_2_0_sb +0 x_0_2_1_sb -1 x_0_2_2_sb +0 x_0_2_3_sb +0 p0_0_2 +0 p1_0_2 >= 0
-1 x_0_4_0 +0 x_0_4_1 +1 x_0_4_2 -1 x_0_4_3 +0 x_0_2_0_sb -1 x_0_2_1_sb -1 x_0_2_2_sb +0 x_0_2_3_sb +0 p0_0_2 -1 p1_0_2 >= -4
+1 x_0_4_0 +1 x_0_4_1 +0 x_0_4_2 -1 x_0_4_3 +1 x_0_2_0_sb +1 x_0_2_1_sb +0 x_0_2_2_sb -1 x_0_2_3_sb +0 p0_0_2 -1 p1_0_2 >= -2
+1 x_0_4_0 +0 x_0_4_1 +1 x_0_4_2 +0 x_0_4_3 +0 x_0_2_0_sb +1 x_0_2_1_sb +1 x_0_2_2_sb +1 x_0_2_3_sb +0 p0_0_2 -1 p1_0_2 >= 0
+1 x_0_4_0 +0 x_0_4_1 -1 x_0_4_2 -1 x_0_4_3 -1 x_0_2_0_sb -1 x_0_2_1_sb +0 x_0_2_2_sb -1 x_0_2_3_sb +0 p0_0_2 -1 p1_0_2 >= -5
+0 x_0_4_0 +0 x_0_4_1 +1 x_0_4_2 +1 x_0_4_3 -1 x_0_2_0_sb +0 x_0_2_1_sb -1 x_0_2_2_sb +0 x_0_2_3_sb +0 p0_0_2 -1 p1_0_2 >= -2
+0 x_0_4_0 +0 x_0_4_1 +1 x_0_4_2 +0 x_0_4_3 +1 x_0_2_0_sb -1 x_0_2_1_sb +0 x_0_2_2_sb -1 x_0_2_3_sb +0 p0_0_2 +0 p1_0_2 >= -1
+0 x_0_4_0 -1 x_0_4_1 +0 x_0_4_2 -1 x_0_4_3 +0 x_0_2_0_sb +1 x_0_2_1_sb +0 x_0_2_2_sb +1 x_0_2_3_sb +0 p0_0_2 +1 p1_0_2 >= -1
+0 x_0_4_0 +1 x_0_4_1 +0 x_0_4_2 +1 x_0_4_3 +0 x_0_2_0_sb -1 x_0_2_1_sb +0 x_0_2_2_sb -1 x_0_2_3_sb +0 p0_0_2 +1 p1_0_2 >= -1
+1 x_0_4_0 -1 x_0_4_1 +1 x_0_4_2 -1 x_0_4_3 +1 x_0_2_0_sb +0 x_0_2_1_sb +0 x_0_2_2_sb +0 x_0_2_3_sb +0 p0_0_2 +0 p1_0_2 >= -1
+1 x_0_4_0 +0 x_0_4_1 +0 x_0_4_2 +0 x_0_4_3 +1 x_0_2_0_sb -1 x_0_2_1_sb +1 x_0_2_2_sb -1 x_0_2_3_sb +0 p0_0_2 +0 p1_0_2 >= -1
+0 x_0_4_0 -1 x_0_4_1 +0 x_0_4_2 -1 x_0_4_3 +1 x_0_2_0_sb -1 x_0_2_1_sb -1 x_0_2_2_sb -1 x_0_2_3_sb +0 p0_0_2 +0 p1_0_2 >= -4
+1 x_0_4_0 +0 x_0_4_1 +0 x_0_4_2 +1 x_0_4_3 +0 x_0_2_0_sb -1 x_0_2_1_sb -1 x_0_2_2_sb +1 x_0_2_3_sb +0 p0_0_2 -1 p1_0_2 >= -2
+0 x_0_4_0 +0 x_0_4_1 -1 x_0_4_2 +1 x_0_4_3 -1 x_0_2_0_sb +1 x_0_2_1_sb +0 x_0_2_2_sb -1 x_0_2_3_sb +0 p0_0_2 -1 p1_0_2 >= -3
+0 x_0_4_0 +1 x_0_4_1 +0 x_0_4_2 +1 x_0_4_3 -1 x_0_2_0_sb -1 x_0_2_1_sb +0 x_0_2_2_sb +1 x_0_2_3_sb +0 p0_0_2 -1 p1_0_2 >= -2
-1 x_0_4_0 +1 x_0_4_1 +0 x_0_4_2 -1 x_0_4_3 +0 x_0_2_0_sb +0 x_0_2_1_sb -1 x_0_2_2_sb +1 x_0_2_3_sb +0 p0_0_2 -1 p1_0_2 >= -3
-1 x_0_4_0 +0 x_0_4_1 +0 x_0_4_2 +0 x_0_4_3 -1 x_0_2_0_sb +1 x_0_2_1_sb +0 x_0_2_2_sb -1 x_0_2_3_sb +0 p0_0_2 -1 p1_0_2 >= -3
+0 x_0_4_0 +0 x_0_4_1 -1 x_0_4_2 +0 x_0_4_3 +1 x_0_2_0_sb +1 x_0_2_1_sb +0 x_0_2_2_sb +1 x_0_2_3_sb +0 p0_0_2 +0 p1_0_2 >= 0
+0 x_0_6_0 +0 x_0_6_1 +0 x_0_6_2 +0 x_0_6_3 +0 x_0_3_0_sb +0 x_0_3_1_sb +0 x_0_3_2_sb +0 x_0_3_3_sb -1 p0_0_3 -1 p1_0_3 >= -1
+0 x_0_6_0 +0 x_0_6_1 +0 x_0_6_2 +0 x_0_6_3 +0 x_0_3_0_sb +0 x_0_3_1_sb +0 x_0_3_2_sb -1 x_0_3_3_sb +1 p0_0_3 +1 p1_0_3 >= 0
+0 x_0_6_0 +0 x_0_6_1 +0 x_0_6_2 +0 x_0_6_3 +0 x_0_3_0_sb -1 x_0_3_1_sb +0 x_0_3_2_sb +0 x_0_3_3_sb +1 p0_0_3 +1 p1_0_3 >= 0
+0 x_0_6_0 +0 x_0_6_1 +0 x_0_6_2 +0 x_0_6_3 -1 x_0_3_0_sb +0 x_0_3_1_sb +0 x_0_3_2_sb +0 x_0_3_3_sb +1 p0_0_3 +1 p1_0_3 >= 0
+0 x_0_6_0 +0 x_0_6_1 +0 x_0_6_2 +0 x_0_6_3 +1 x_0_3_0_sb +1 x_0_3_1_sb +1 x_0_3_2_sb +1 x_0_3_3_sb +0 p0_0_3 -1 p1_0_3 >= 0
+0 x_0_6_0 +0 x_0_6_1 +0 x_0_6_2 -1 x_0_6_3 +1 x_0_3_0_sb +1 x_0_3_1_sb +0 x_0_3_2_sb +1 x_0_3_3_sb +0 p0_0_3 +1 p1_0_3 >= 0
-1 x_0_6_0 +0 x_0_6_1 -1 x_0_6_2 +0 x_0_6_3 +1 x_0_3_0_sb +0 x_0_3_1_sb +0 x_0_3_2_sb +1 x_0_3_3_sb +0 p0_0_3 -1 p1_0_3 >= -2
+1 x_0_6_0 +0 x_0_6_1 +1 x_0_6_2 +0 x_0_6_3 +1 x_0_3_0_sb +0 x_0_3_1_sb +1 x_0_3_2_sb +0 x_0_3_3_sb +0 p0_0_3 -1 p1_0_3 >= 0
+0 x_0_6_0 +0 x_0_6_1 +0 x_0_6_2 +1 x_0_6_3 +0 x_0_3_0_sb +1 x_0_3_1_sb -1 x_0_3_2_sb -1 x_0_3_3_sb +0 p0_0_3 -1 p1_0_3 >= -2
-1 x_0_6_0 +0 x_0_6_1 +0 x_0_6_2 -1 x_0_6_3 -1 x_0_3_0_sb +0 x_0_3_1_sb +0 x_0_3_2_sb +1 x_0_3_3_sb +0 p0_0_3 -1 p1_0_3 >= -3
+0 x_0_6_0 +0 x_0_6_1 +0 x_0_6_2 +1 x_0_6_3 -1 x_0_3_0_sb -1 x_0_3_1_sb -1 x_0_3_2_sb +0 x_0_3_3_sb +0 p0_0_3 -1 p1_0_3 >= -3
+1 x_0_6_0 +1 x_0_6_1 +0 x_0_6_2 +1 x_0_6_3 +0 x_0_3_0_sb +0 x_0_3_1_sb +0 x_0_3_2_sb +0 x_0_3_3_sb -1 p0_0_3 +0 p1_0_3 >= 0
+0 x_0_6_0 +0 x_0_6_1 +1 x_0_6_2 +1 x_0_6_3 +0 x_0_3_0_sb -1 x_0_3_1_sb +1 x_0_3_2_sb +0 x_0_3_3_sb +0 p0_0_3 -1 p1_0_3 >= -1
+0 x_0_6_0 +1 x_0_6_1 +0 x_0_6_2 -1 x_0_6_3 -1 x_0_3_0_sb +0 x_0_3_1_sb -1 x_0_3_2_sb +0 x_0_3_3_sb +0 p0_0_3 -1 p1_0_3 >= -3
+0 x_0_6_0 +1 x_0_6_1 +1 x_0_6_2 +0 x_0_6_3 +0 x_0_3_0_sb +0 x_0_3_1_sb +1 x_0_3_2_sb -1 x_0_3_3_sb +0 p0_0_3 -1 p1_0_3 >= -1
-1 x_0_6_0 +0 x_0_6_1 -1 x_0_6_2 +0 x_0_6_3 -1 x_0_3_0_sb +0 x_0_3_1_sb +1 x_0_3_2_sb +0 x_0_3_3_sb +0 p0_0_3 -1 p1_0_3 >= -3
+0 x_0_6_0 -1 x_0_6_1 -1 x_0_6_2 +0 x_0_6_3 +0 x_0_3_0_sb +1 x_0_3_1_sb +0 x_0_3_2_sb +1 x_0_3_3_sb +0 p0_0_3 -1 p1_0_3 >= -2
+0 x_0_6_0 -1 x_0_6_1 +0 x_0_6_2 +0 x_0_6_3 +1 x_0_3_0_sb +1 x_0_3_1_sb +0 x_0_3_2_sb +1 x_0_3_3_sb +0 p0_0_3 +1 p1_0_3 >= 0
-1 x_0_6_0 -1 x_0_6_1 +0 x_0_6_2 +1 x_0_6_3 +0 x_0_3_0_sb +1 x_0_3_1_sb +0 x_0_3_2_sb +1 x_0_3_3_sb +0 p0_0_3 -1 p1_0_3 >= -2
+0 x_0_6_0 -1 x_0_6_1 +0 x_0_6_2 +0 x_0_6_3 +1 x_0_3_0_sb +0 x_0_3_1_sb +1 x_0_3_2_sb +1 x_0_3_3_sb +0 p0_0_3 -1 p1_0_3 >= -1
-1 x_0_6_0 +0 x_0_6_1 -1 x_0_6_2 +0 x_0_6_3 +1 x_0_3_0_sb +1 x_0_3_1_sb +0 x_0_3_2_sb +0 x_0_3_3_sb +0 p0_0_3 -1 p1_0_3 >= -2
+0 x_0_6_0 +1 x_0_6_1 -1 x_0_6_2 -1 x_0_6_3 +0 x_0_3_0_sb +0 x_0_3_1_sb +0 x_0_3_2_sb +1 x_0_3_3_sb +0 p0_0_3 -1 p1_0_3 >= -2
-1 x_0_6_0 -1 x_0_6_1 +0 x_0_6_2 -1 x_0_6_3 +0 x_0_3_0_sb +1 x_0_3_1_sb +0 x_0_3_2_sb -1 x_0_3_3_sb +0 p0_0_3 -1 p1_0_3 >= -4
-1 x_0_6_0 +1 x_0_6_1 +0 x_0_6_2 +1 x_0_6_3 +0 x_0_3_0_sb +1 x_0_3_1_sb +0 x_0_3_2_sb +1 x_0_3_3_sb +0 p0_0_3 +1 p1_0_3 >= 0
+0 x_0_6_0 +0 x_0_6_1 +0 x_0_6_2 +0 x_0_6_3 +1 x_0_3_0_sb -1 x_0_3_1_sb +0 x_0_3_2_sb -1 x_0_3_3_sb +0 p0_0_3 +1 p1_0_3 >= -1
+1 x_0_6_0 +0 x_0_6_1 +1 x_0_6_2 +0 x_0_6_3 +1 x_0_3_0_sb -1 x_0_3_1_sb +0 x_0_3_2_sb +0 x_0_3_3_sb +0 p0_0_3 -1 p1_0_3 >= -1
+0 x_0_6_0 +1 x_0_6_1 +0 x_0_6_2 +1 x_0_6_3 +0 x_0_3_0_sb -1 x_0_3_1_sb -1 x_0_3_2_sb +0 x_0_3_3_sb +0 p0_0_3 -1 p1_0_3 >= -2
+1 x_0_6_0 -1 x_0_6_1 +0 x_0_6_2 -1 x_0_6_3 +0 x_0_3_0_sb +0 x_0_3_1_sb +1 x_0_3_2_sb +0 x_0_3_3_sb +0 p0_0_3 +0 p1_0_3 >= -1
+1 x_0_6_0 -1 x_0_6_1 -1 x_0_6_2 +0 x_0_6_3 +0 x_0_3_0_sb +0 x_0_3_1_sb +1 x_0_3_2_sb -1 x_0_3_3_sb +0 p0_0_3 -1 p1_0_3 >= -3
+1 x_0_6_0 -1 x_0_6_1 +0 x_0_6_2 -1 x_0_6_3 +0 x_0_3_0_sb +0 x_0_3_1_sb +0 x_0_3_2_sb +0 x_0_3_3_sb +0 p0_0_3 +1 p1_0_3 >= -1
+1 x_0_6_0 +0 x_0_6_1 +0 x_0_6_2 +0 x_0_6_3 -1 x_0_3_0_sb +1 x_0_3_1_sb +0 x_0_3_2_sb -1 x_0_3_3_sb +0 p0_0_3 +1 p1_0_3 >= -1
+1 x_0_6_0 +0 x_0_6_1 +0 x_0_6_2 +0 x_0_6_3 -1 x_0_3_0_sb -1 x_0_3_1_sb +0 x_0_3_2_sb +1 x_0_3_3_sb +0 p0_0_3 +1 p1_0_3 >= -1
-1 x_0_6_0 -1 x_0_6_1 +0 x_0_6_2 +1 x_0_6_3 +1 x_0_3_0_sb +0 x_0_3_1_sb +0 x_0_3_2_sb +0 x_0_3_3_sb +0 p0_0_3 +1 p1_0_3 >= -1
-1 x_0_6_0 +1 x_0_6_1 +0 x_0_6_2 -1 x_0_6_3 +1 x_0_3_0_sb +0 x_0_3_1_sb +0 x_0_3_2_sb +0 x_0_3_3_sb +0 p0_0_3 +1 p1_0_3 >= -1
+0 x_0_6_0 -1 x_0_6_1 +0 x_0_6_2 -1 x_0_6_3 +0 x_0_3_0_sb -1 x_0_3_1_sb +0 x_0_3_2_sb -1 x_0_3_3_sb +0 p0_0_3 +1 p1_0_3 >= -3
+1 x_0_6_0 +1 x_0_6_1 +0 x_0_6_2 +1 x_0_6_3 +0 x_0_3_0_sb +0 x_0_3_1_sb -1 x_0_3_2_sb +0 x_0_3_3_sb +0 p0_0_3 +0 p1_0_3 >= 0
-1 x_0_6_0 +0 x_0_6_1 +1 x_0_6_2 -1 x_0_6_3 +0 x_0_3_0_sb -1 x_0_3_1_sb -1 x_0_3_2_sb +0 x_0_3_3_sb +0 p0_0_3 -1 p1_0_3 >= -4
+1 x_0_6_0 +1 x_0_6_1 +0 x_0_6_2 -1 x_0_6_3 +1 x_0_3_0_sb +1 x_0_3_1_sb +0 x_0_3_2_sb -1 x_0_3_3_sb +0 p0_0_3 -1 p1_0_3 >= -2
+1 x_0_6_0 +0 x_0_6_1 +1 x_0_6_2 +0 x_0_6_3 +0 x_0_3_0_sb +1 x_0_3_1_sb +1 x_0_3_2_sb +1 x_0_3_3_sb +0 p0_0_3 -1 p1_0_3 >= 0
+1 x_0_6_0 +0 x_0_6_1 -1 x_0_6_2 -1 x_0_6_3 -1 x_0_3_0_sb -1 x_0_3_1_sb +0 x_0_3_2_sb -1 x_0_3_3_sb +0 p0_0_3 -1 p1_0_3 >= -5
+0 x_0_6_0 +0 x_0_6_1 +1 x_0_6_2 +1 x_0_6_3 -1 x_0_3_0_sb +0 x_0_3_1_sb -1 x_0_3_2_sb +0 x_0_3_3_sb +0 p0_0_3 -1 p1_0_3 >= -2
+0 x_0_6_0 +0 x_0_6_1 +1 x_0_6_2 +0 x_0_6_3 +1 x_0_3_0_sb -1 x_0_3_1_sb +0 x_0_3_2_sb -1 x_0_3_3_sb +0 p0_0_3 +0 p1_0_3 >= -1
+0 x_0_6_0 -1 x_0_6_1 +0 x_0_6_2 -1 x_0_6_3 +0 x_0_3_0_sb +1 x_0_3_1_sb +0 x_0_3_2_sb +1 x_0_3_3_sb +0 p0_0_3 +1 p1_0_3 >= -1
+0 x_0_6_0 +1 x_0_6_1 +0 x_0_6_2 +1 x_0_6_3 +0 x_0_3_0_sb -1 x_0_3_1_sb +0 x_0_3_2_sb -1 x_0_3_3_sb +0 p0_0_3 +1 p1_0_3 >= -1
+1 x_0_6_0 -1 x_0_6_1 +1 x_0_6_2 -1 x_0_6_3 +1 x_0_3_0_sb +0 x_0_3_1_sb +0 x_0_3_2_sb +0 x_0_3_3_sb +0 p0_0_3 +0 p1_0_3 >= -1
+1 x_0_6_0 +0 x_0_6_1 +0 x_0_6_2 +0 x_0_6_3 +1 x_0_3_0_sb -1 x_0_3_1_sb +1 x_0_3_2_sb -1 x_0_3_3_sb +0 p0_0_3 +0 p1_0_3 >= -1
+0 x_0_6_0 -1 x_0_6_1 +0 x_0_6_2 -1 x_0_6_3 +1 x_0_3_0_sb -1 x_0_3_1_sb -1 x_0_3_2_sb -1 x_0_3_3_sb +0 p0_0_3 +0 p1_0_3 >= -4
+1 x_0_6_0 +0 x_0_6_1 +0 x_0_6_2 +1 x_0_6_3 +0 x_0_3_0_sb -1 x_0_3_1_sb -1 x_0_3_2_sb +1 x_0_3_3_sb +0 p0_0_3 -1 p1_0_3 >= -2
+0 x_0_6_0 +0 x_0_6_1 -1 x_0_6_2 +1 x_0_6_3 -1 x_0_3_0_sb +1 x_0_3_1_sb +0 x_0_3_2_sb -1 x_0_3_3_sb +0 p0_0_3 -1 p1_0_3 >= -3
+0 x_0_6_0 +1 x_0_6_1 +0 x_0_6_2 +1 x_0_6_3 -1 x_0_3_0_sb -1 x_0_3_1_sb +0 x_0_3_2_sb +1 x_0_3_3_sb +0 p0_0_3 -1 p1_0_3 >= -2
-1 x_0_6_0 +1 x_0_6_1 +0 x_0_6_2 -1 x_0_6_3 +0 x_0_3_0_sb +0 x_0_3_1_sb -1 x_0_3_2_sb +1 x_0_3_3_sb +0 p0_0_3 -1 p1_0_3 >= -3
-1 x_0_6_0 +0 x_0_6_1 +0 x_0_6_2 +0 x_0_6_3 -1 x_0_3_0_sb +1 x_0_3_1_sb +0 x_0_3_2_sb -1 x_0_3_3_sb +0 p0_0_3 -1 p1_0_3 >= -3
+0 x_0_6_0 +0 x_0_6_1 -1 x_0_6_2 +0 x_0_6_3 +1 x_0_3_0_sb +1 x_0_3_1_sb +0 x_0_3_2_sb +1 x_0_3_3_sb +0 p0_0_3 +0 p1_0_3 >= 0
+0 x_0_8_0 +0 x_0_8_1 +0 x_0_8_2 +0 x_0_8_3 +0 x_0_4_0_sb +0 x_0_4_1_sb +0 x_0_4_2_sb +0 x_0_4_3_sb -1 p0_0_4 -1 p1_0_4 >= -1
+0 x_0_8_0 +0 x_0_8_1 +0 x_0_8_2 +0 x_0_8_3 +0 x_0_4_0_sb +0 x_0_4_1_sb +0 x_0_4_2_sb -1 x_0_4_3_sb +1 p0_0_4 +1 p1_0_4 >= 0
+0 x_0_8_0 +0 x_0_8_1 +0 x_0_8_2 +0 x_0_8_3 +0 x_0_4_0_sb -1 x_0_4_1_sb +0 x_0_4_2_sb +0 x_0_4_3_sb +1 p0_0_4 +1 p1_0_4 >= 0
+0 x_0_8_0 +0 x_0_8_1 +0 x_0_8_2 +0 x_0_8_3 -1 x_0_4_0_sb +0 x_0_4_1_sb +0 x_0_4_2_sb +0 x_0_4_3_sb +1 p0_0_4 +1 p1_0_4 >= 0
+0 x_0_8_0 +0 x_0_8_1 +0 x_0_8_2 +0 x_0_8_3 +1 x_0_4_0_sb +1 x_0_4_1_sb +1 x_0_4_2_sb +1 x_0_4_3_sb +0 p0_0_4 -1 p1_0_4 >= 0
+0 x_0_8_0 +0 x_0_8_1 +0 x_0_8_2 -1 x_0_8_3 +1 x_0_4_0_sb +1 x_0_4_1_sb +0 x_0_4_2_sb +1 x_0_4_3_sb +0 p0_0_4 +1 p1_0_4 >= 0
-1 x_0_8_0 +0 x_0_8_1 -1 x_0_8_2 +0 x_0_8_3 +1 x_0_4_0_sb +0 x_0_4_1_sb +0 x_0_4_2_sb +1 x_0_4_3_sb +0 p0_0_4 -1 p1_0_4 >= -2
+1 x_0_8_0 +0 x_0_8_1 +1 x_0_8_2 +0 x_0_8_3 +1 x_0_4_0_sb +0 x_0_4_1_sb +1 x_0_4_2_sb +0 x_0_4_3_sb +0 p0_0_4 -1 p1_0_4 >= 0
+0 x_0_8_0 +0 x_0_8_1 +0 x_0_8_2 +1 x_0_8_3 +0 x_0_4_0_sb +1 x_0_4_1_sb -1 x_0_4_2_sb -1 x_0_4_3_sb +0 p0_0_4 -1 p1_0_4 >= -2
-1 x_0_8_0 +0 x_0_8_1 +0 x_0_8_2 -1 x_0_8_3 -1 x_0_4_0_sb +0 x_0_4_1_sb +0 x_0_4_2_sb +1 x_0_4_3_sb +0 p0_0_4 -1 p1_0_4 >= -3
+0 x_0_8_0 +0 x_0_8_1 +0 x_0_8_2 +1 x_0_8_3 -1 x_0_4_0_sb -1 x_0_4_1_sb -1 x_0_4_2_sb +0 x_0_4_3_sb +0 p0_0_4 -1 p1_0_4 >= -3
+1 x_0_8_0 +1 x_0_8_1 +0 x_0_8_2 +1 x_0_8_3 +0 x_0_4_0_sb +0 x_0_4_1_sb +0 x_0_4_2_sb +0 x_0_4_3_sb -1 p0_0_4 +0 p1_0_4 >= 0
+0 x_0_8_0 +0 x_0_8_1 +1 x_0_8_2 +1 x_0_8_3 +0 x_0_4_0_sb -1 x_0_4_1_sb +1 x_0_4_2_sb +0 x_0_4_3_sb +0 p0_0_4 -1 p1_0_4 >= -1
+0 x_0_8_0 +1 x_0_8_1 +0 x_0_8_2 -1 x_0_8_3 -1 x_0_4_0_sb +0 x_0_4_1_sb -1 x_0_4_2_sb +0 x_0_4_3_sb +0 p0_0_4 -1 p1_0_4 >= -3
+0 x_0_8_0 +1 x_0_8_1 +1 x_0_8_2 +0 x_0_8_3 +0 x_0_4_0_sb +0 x_0_4_1_sb +1 x_0_4_2_sb -1 x_0_4_3_sb +0 p0_0_4 -1 p1_0_4 >= -1
-1 x_0_8_0 +0 x_0_8_1 -1 x_0_8_2 +0 x_0_8_3 -1 x_0_4_0_sb +0 x_0_4_1_sb +1 x_0_4_2_sb +0 x_0_4_3_sb +0 p0_0_4 -1 p1_0_4 >= -3
+0 x_0_8_0 -1 x_0_8_1 -1 x_0_8_2 +0 x_0_8_3 +0 x_0_4_0_sb +1 x_0_4_1_sb +0 x_0_4_2_sb +1 x_0_4_3_sb +0 p0_0_4 -1 p1_0_4 >= -2
+0 x_0_8_0 -1 x_0_8_1 +0 x_0_8_2 +0 x_0_8_3 +1 x_0_4_0_sb +1 x_0_4_1_sb +0 x_0_4_2_sb +1 x_0_4_3_sb +0 p0_0_4 +1 p1_0_4 >= 0
-1 x_0_8_0 -1 x_0_8_1 +0 x_0_8_2 +1 x_0_8_3 +0 x_0_4_0_sb +1 x_0_4_1_sb +0 x_0_4_2_sb +1 x_0_4_3_sb +0 p0_0_4 -1 p1_0_4 >= -2
+0 x_0_8_0 -1 x_0_8_1 +0 x_0_8_2 +0 x_0_8_3 +1 x_0_4_0_sb +0 x_0_4_1_sb +1 x_0_4_2_sb +1 x_0_4_3_sb +0 p0_0_4 -1 p1_0_4 >= -1
-1 x_0_8_0 +0 x_0_8_1 -1 x_0_8_2 +0 x_0_8_3 +1 x_0_4_0_sb +1 x_0_4_1_sb +0 x_0_4_2_sb +0 x_0_4_3_sb +0 p0_0_4 -1 p1_0_4 >= -2
+0 x_0_8_0 +1 x_0_8_1 -1 x_0_8_2 -1 x_0_8_3 +0 x_0_4_0_sb +0 x_0_4_1_sb +0 x_0_4_2_sb +1 x_0_4_3_sb +0 p0_0_4 -1 p1_0_4 >= -2
-1 x_0_8_0 -1 x_0_8_1 +0 x_0_8_2 -1 x_0_8_3 +0 x_0_4_0_sb +1 x_0_4_1_sb +0 x_0_4_2_sb -1 x_0_4_3_sb +0 p0_0_4 -1 p1_0_4 >= -4
-1 x_0_8_0 +1 x_0_8_1 +0 x_0_8_2 +1 x_0_8_3 +0 x_0_4_0_sb +1 x_0_4_1_sb +0 x_0_4_2_sb +1 x_0_4_3_sb +0 p0_0_4 +1 p1_0_4 >= 0
+0 x_0_8_0 +0 x_0_8_1 +0 x_0_8_2 +0 x_0_8_3 +1 x_0_4_0_sb -1 x_0_4_1_sb +0 x_0_4_2_sb -1 x_0_4_3_sb +0 p0_0_4 +1 p1_0_4 >= -1
+1 x_0_8_0 +0 x_0_8_1 +1 x_0_8_2 +0 x_0_8_3 +1 x_0_4_0_sb -1 x_0_4_1_sb +0 x_0_4_2_sb +0 x_0_4_3_sb +0 p0_0_4 -1 p1_0_4 >= -1
+0 x_0_8_0 +1 x_0_8_1 +0 x_0_8_2 +1 x_0_8_3 +0 x_0_4_0_sb -1 x_0_4_1_sb -1 x_0_4_2_sb +0 x_0_4_3_sb +0 p0_0_4 -1 p1_0_4 >= -2
+1 x_0_8_0 -1 x_0_8_1 +0 x_0_8_2 -1 x_0_8_3 +0 x_0_4_0_sb +0 x_0_4_1_sb +1 x_0_4_2_sb +0 x_0_4_3_sb +0 p0_0_4 +0 p1_0_4 >= -1
+1 x_0_8_0 -1 x_0_8_1 -1 x_0_8_2 +0 x_0_8_3 +0 x_0_4_0_sb +0 x_0_4_1_sb +1 x_0_4_2_sb -1 x_0_4_3_sb +0 p0_0_4 -1 p1_0_4 >= -3
+1 x_0_8_0 -1 x_0_8_1 +0 x_0_8_2 -1 x_0_8_3 +0 x_0_4_0_sb +0 x_0_4_1_sb +0 x_0_4_2_sb +0 x_0_4_3_sb +0 p0_0_4 +1 p1_0_4 >= -1
+1 x_0_8_0 +0 x_0_8_1 +0 x_0_8_2 +0 x_0_8_3 -1 x_0_4_0_sb +1 x_0_4_1_sb +0 x_0_4_2_sb -1 x_0_4_3_sb +0 p0_0_4 +1 p1_0_4 >= -1
+1 x_0_8_0 +0 x_0_8_1 +0 x_0_8_2 +0 x_0_8_3 -1 x_0_4_0_sb -1 x_0_4_1_sb +0 x_0_4_2_sb +1 x_0_4_3_sb +0 p0_0_4 +1 p1_0_4 >= -1
-1 x_0_8_0 -1 x_0_8_1 +0 x_0_8_2 +1 x_0_8_3 +1 x_0_4_0_sb +0 x_0_4_1_sb +0 x_0_4_2_sb +0 x_0_4_3_sb +0 p0_0_4 +1 p1_0_4 >= -1
-1 x_0_8_0 +1 x_0_8_1 +0 x_0_8_2 -1 x_0_8_3 +1 x_0_4_0_sb +0 x_0_4_1_sb +0 x_0_4_2_sb +0 x_0_4_3_sb +0 p0_0_4 +1 p1_0_4 >= -1
+0 x_0_8_0 -1 x_0_8_1 +0 x_0_8_2 -1 x_0_8_3 +0 x_0_4_0_sb -1 x_0_4_1_sb +0 x_0_4_2_sb -1 x_0_4_3_sb +0 p0_0_4 +1 p1_0_4 >= -3
+1 x_0_8_0 +1 x_0_8_1 +0 x_0_8_2 +1 x_0_8_3 +0 x_0_4_0_sb +0 x_0_4_1_sb -1 x_0_4_2_sb +0 x_0_4_3_sb +0 p0_0_4 +0 p1_0_4 >= 0
-1 x_0_8_0 +0 x_0_8_1 +1 x_0_8_2 -1 x_0_8_3 +0 x_0_4_0_sb -1 x_0_4_1_sb -1 x_0_4_2_sb +0 x_0_4_3_sb +0 p0_0_4 -1 p1_0_4 >= -4
+1 x_0_8_0 +1 x_0_8_1 +0 x_0_8_2 -1 x_0_8_3 +1 x_0_4_0_sb +1 x_0_4_1_sb +0 x_0_4_2_sb -1 x_0_4_3_sb +0 p0_0_4 -1 p1_0_4 >= -2
+1 x_0_8_0 +0 x_0_8_1 +1 x_0_8_2 +0 x_0_8_3 +0 x_0_4_0_sb +1 x_0_4_1_sb +1 x_0_4_2_sb +1 x_0_4_3_sb +0 p0_0_4 -1 p1_0_4 >= 0
+1 x_0_8_0 +0 x_0_8_1 -1 x_0_8_2 -1 x_0_8_3 -1 x_0_4_0_sb -1 x_0_4_1_sb +0 x_0_4_2_sb -1 x_0_4_3_sb +0 p0_0_4 -1 p1_0_4 >= -5
+0 x_0_8_0 +0 x_0_8_1 +1 x_0_8_2 +1 x_0_8_3 -1 x_0_4_0_sb +0 x_0_4_1_sb -1 x_0_4_2_sb +0 x_0_4_3_sb +0 p0_0_4 -1 p1_0_4 >= -2
+0 x_0_8_0 +0 x_0_8_1 +1 x_0_8_2 +0 x_0_8_3 +1 x_0_4_0_sb -1 x_0_4_1_sb +0 x_0_4_2_sb -1 x_0_4_3_sb +0 p0_0_4 +0 p1_0_4 >= -1
+0 x_0_8_0 -1 x_0_8_1 +0 x_0_8_2 -1 x_0_8_3 +0 x_0_4_0_sb +1 x_0_4_1_sb +0 x_0_4_2_sb +1 x_0_4_3_sb +0 p0_0_4 +1 p1_0_4 >= -1
+0 x_0_8_0 +1 x_0_8_1 +0 x_0_8_2 +1 x_0_8_3 +0 x_0_4_0_sb -1 x_0_4_1_sb +0 x_0_4_2_sb -1 x_0_4_3_sb +0 p0_0_4 +1 p1_0_4 >= -1
+1 x_0_8_0 -1 x_0_8_1 +1 x_0_8_2 -1 x_0_8_3 +1 x_0_4_0_sb +0 x_0_4_1_sb +0 x_0_4_2_sb +0 x_0_4_3_sb +0 p0_0_4 +0 p1_0_4 >= -1
+1 x_0_8_0 +0 x_0_8_1 +0 x_0_8_2 +0 x_0_8_3 +1 x_0_4_0_sb -1 x_0_4_1_sb +1 x_0_4_2_sb -1 x_0_4_3_sb +0 p0_0_4 +0 p1_0_4 >= -1
+0 x_0_8_0 -1 x_0_8_1 +0 x_0_8_2 -1 x_0_8_3 +1 x_0_4_0_sb -1 x_0_4_1_sb -1 x_0_4_2_sb -1 x_0_4_3_sb +0 p0_0_4 +0 p1_0_4 >= -4
+1 x_0_8_0 +0 x_0_8_1 +0 x_0_8_2 +1 x_0_8_3 +0 x_0_4_0_sb -1 x_0_4_1_sb -1 x_0_4_2_sb +1 x_0_4_3_sb +0 p0_0_4 -1 p1_0_4 >= -2
+0 x_0_8_0 +0 x_0_8_1 -1 x_0_8_2 +1 x_0_8_3 -1 x_0_4_0_sb +1 x_0_4_1_sb +0 x_0_4_2_sb -1 x_0_4_3_sb +0 p0_0_4 -1 p1_0_4 >= -3
+0 x_0_8_0 +1 x_0_8_1 +0 x_0_8_2 +1 x_0_8_3 -1 x_0_4_0_sb -1 x_0_4_1_sb +0 x_0_4_2_sb +1 x_0_4_3_sb +0 p0_0_4 -1 p1_0_4 >= -2
-1 x_0_8_0 +1 x_0_8_1 +0 x_0_8_2 -1 x_0_8_3 +0 x_0_4_0_sb +0 x_0_4_1_sb -1 x_0_4_2_sb +1 x_0_4_3_sb +0 p0_0_4 -1 p1_0_4 >= -3
-1 x_0_8_0 +0 x_0_8_1 +0 x_0_8_2 +0 x_0_8_3 -1 x_0_4_0_sb +1 x_0_4_1_sb +0 x_0_4_2_sb -1 x_0_4_3_sb +0 p0_0_4 -1 p1_0_4 >= -3
+0 x_0_8_0 +0 x_0_8_1 -1 x_0_8_2 +0 x_0_8_3 +1 x_0_4_0_sb +1 x_0_4_1_sb +0 x_0_4_2_sb +1 x_0_4_3_sb +0 p0_0_4 +0 p1_0_4 >= 0
+0 x_0_10_0 +0 x_0_10_1 +0 x_0_10_2 +0 x_0_10_3 +0 x_0_5_0_sb +0 x_0_5_1_sb +0 x_0_5_2_sb +0 x_0_5_3_sb -1 p0_0_5 -1 p1_0_5 >= -1
+0 x_0_10_0 +0 x_0_10_1 +0 x_0_10_2 +0 x_0_10_3 +0 x_0_5_0_sb +0 x_0_5_1_sb +0 x_0_5_2_sb -1 x_0_5_3_sb +1 p0_0_5 +1 p1_0_5 >= 0
+0 x_0_10_0 +0 x_0_10_1 +0 x_0_10_2 +0 x_0_10_3 +0 x_0_5_0_sb -1 x_0_5_1_sb +0 x_0_5_2_sb +0 x_0_5_3_sb +1 p0_0_5 +1 p1_0_5 >= 0
+0 x_0_10_0 +0 x_0_10_1 +0 x_0_10_2 +0 x_0_10_3 -1 x_0_5_0_sb +0 x_0_5_1_sb +0 x_0_5_2_sb +0 x_0_5_3_sb +1 p0_0_5 +1 p1_0_5 >= 0
+0 x_0_10_0 +0 x_0_10_1 +0 x_0_10_2 +0 x_0_10_3 +1 x_0_5_0_sb +1 x_0_5_1_sb +1 x_0_5_2_sb +1 x_0_5_3_sb +0 p0_0_5 -1 p1_0_5 >= 0
+0 x_0_10_0 +0 x_0_10_1 +0 x_0_10_2 -1 x_0_10_3 +1 x_0_5_0_sb +1 x_0_5_1_sb +0 x_0_5_2_sb +1 x_0_5_3_sb +0 p0_0_5 +1 p1_0_5 >= 0
-1 x_0_10_0 +0 x_0_10_1 -1 x_0_10_2 +0 x_0_10_3 +1 x_0_5_0_sb +0 x_0_5_1_sb +0 x_0_5_2_sb +1 x_0_5_3_sb +0 p0_0_5 -1 p1_0_5 >= -2
+1 x_0_10_0 +0 x_0_10_1 +1 x_0_10_2 +0 x_0_10_3 +1 x_0_5_0_sb +0 x_0_5_1_sb +1 x_0_5_2_sb +0 x_0_5_3_sb +0 p0_0_5 -1 p1_0_5 >= 0
+0 x_0_10_0 +0 x_0_10_1 +0 x_0_10_2 +1 x_0_10_3 +0 x_0_5_0_sb +1 x_0_5_1_sb -1 x_0_5_2_sb -1 x_0_5_3_sb +0 p0_0_5 -1 p1_0_5 >= -2
-1 x_0_10_0 +0 x_0_10_1 +0 x_0_10_2 -1 x_0_10_3 -1 x_0_5_0_sb +0 x_0_5_1_sb +0 x_0_5_2_sb +1 x_0_5_3_sb +0 p0_0_5 -1 p1_0_5 >= -3
+0 x_0_10_0 +0 x_0_10_1 +0 x_0_10_2 +1 x_0_10_3 -1 x_0_5_0_sb -1 x_0_5_1_sb -1 x_0_5_2_sb +0 x_0_5_3_sb +0 p0_0_5 -1 p1_0_5 >= -3
+1 x_0_10_0 +1 x_0_10_1 +0 x_0_10_2 +1 x_0_10_3 +0 x_0_5_0_sb +0 x_0_5_1_sb +0 x_0_5_2_sb +0 x_0_5_3_sb -1 p0_0_5 +0 p1_0_5 >= 0
+0 x_0_10_0 +0 x_0_10_1 +1 x_0_10_2 +1 x_0_10_3 +0 x_0_5_0_sb -1 x_0_5_1_sb +1 x_0_5_2_sb +0 x_0_5_3_sb +0 p0_0_5 -1 p1_0_5 >= -1
+0 x_0_10_0 +1 x_0_10_1 +0 x_0_10_2 -1 x_0_10_3 -1 x_0_5_0_sb +0 x_0_5_1_sb -1 x_0_5_2_sb +0 x_0_5_3_sb +0 p0_0_5 -1 p1_0_5 >= -3
+0 x_0_10_0 +1 x_0_10_1 +1 x_0_10_2 +0 x_0_10_3 +0 x_0_5_0_sb +0 x_0_5_1_sb +1 x_0_5_2_sb -1 x_0_5_3_sb +0 p0_0_5 -1 p1_0_5 >= -1
-1 x_0_10_0 +0 x_0_10_1 -1 x_0_10_2 +0 x_0_10_3 -1 x_0_5_0_sb +0 x_0_5_1_sb +1 x_0_5_2_sb +0 x_0_5_3_sb +0 p0_0_5 -1 p1_0_5 >= -3
+0 x_0_10_0 -1 x_0_10_1 -1 x_0_10_2 +0 x_0_10_3 +0 x_0_5_0_sb +1 x_0_5_1_sb +0 x_0_5_2_sb +1 x_0_5_3_sb +0 p0_0_5 -1 p1_0_5 >= -2
+0 x_0_10_0 -1 x_0_10_1 +0 x_0_10_2 +0 x_0_10_3 +1 x_0_5_0_sb +1 x_0_5_1_sb +0 x_0_5_2_sb +1 x_0_5_3_sb +0 p0_0_5 +1 p1_0_5 >= 0
-1 x_0_10_0 -1 x_0_10_1 +0 x_0_10_2 +1 x_0_10_3 +0 x_0_5_0_sb +1 x_0_5_1_sb +0 x_0_5_2_sb +1 x_0_5_3_sb +0 p0_0_5 -1 p1_0_5 >= -2
+0 x_0_10_0 -1 x_0_10_1 +0 x_0_10_2 +0 x_0_10_3 +1 x_0_5_0_sb +0 x_0_5_1_sb +1 x_0_5_2_sb +1 x_0_5_3_sb +0 p0_0_5 -1 p1_0_5 >= -1
-1 x_0_10_0 +0 x_0_10_1 -1 x_0_10_2 +0 x_0_10_3 +1 x_0_5_0_sb +1 x_0_5_1_sb +0 x_0_5_2_sb +0 x_0_5_3_sb +0 p0_0_5 -1 p1_0_5 >= -2
+0 x_0_10_0 +1 x_0_10_1 -1 x_0_10_2 -1 x_0_10_3 +0 x_0_5_0_sb +0 x_0_5_1_sb +0 x_0_5_2_sb +1 x_0_5_3_sb +0 p0_0_5 -1 p1_0_5 >= -2
-1 x_0_10_0 -1 x_0_10_1 +0 x_0_10_2 -1 x_0_10_3 +0 x_0_5_0_sb +1 x_0_5_1_sb +0 x_0_5_2_sb -1 x_0_5_3_sb +0 p0_0_5 -1 p1_0_5 >= -4
-1 x_0_10_0 +1 x_0_10_1 +0 x_0_10_2 +1 x_0_10_3 +0 x_0_5_0_sb +1 x_0_5_1_sb +0 x_0_5_2_sb +1 x_0_5_3_sb +0 p0_0_5 +1 p1_0_5 >= 0
+0 x_0_10_0 +0 x_0_10_1 +0 x_0_10_2 +0 x_0_10_3 +1 x_0_5_0_sb -1 x_0_5_1_sb +0 x_0_5_2_sb -1 x_0_5_3_sb +0 p0_0_5 +1 p1_0_5 >= -1
+1 x_0_10_0 +0 x_0_10_1 +1 x_0_10_2 +0 x_0_10_3 +1 x_0_5_0_sb -1 x_0_5_1_sb +0 x_0_5_2_sb +0 x_0_5_3_sb +0 p0_0_5 -1 p1_0_5 >= -1
+0 x_0_10_0 +1 x_0_10_1 +0 x_0_10_2 +1 x_0_10_3 +0 x_0_5_0_sb -1 x_0_5_1_sb -1 x_0_5_2_sb +0 x_0_5_3_sb +0 p0_0_5 -1 p1_0_5 >= -2
+1 x_0_10_0 -1 x_0_10_1 +0 x_0_10_2 -1 x_0_10_3 +0 x_0_5_0_sb +0 x_0_5_1_sb +1 x_0_5_2_sb +0 x_0_5_3_sb +0 p0_0_5 +0 p1_0_5 >= -1
+1 x_0_10_0 -1 x_0_10_1 -1 x_0_10_2 +0 x_0_10_3 +0 x_0_5_0_sb +0 x_0_5_1_sb +1 x_0_5_2_sb -1 x_0_5_3_sb +0 p0_0_5 -1 p1_0_5 >= -3
+1 x_0_10_0 -1 x_0_10_1 +0 x_0_10_2 -1 x_0_10_3 +0 x_0_5_0_sb +0 x_0_5_1_sb +0 x_0_5_2_sb +0 x_0_5_3_sb +0 p0_0_5 +1 p1_0_5 >= -1
+1 x_0_10_0 +0 x_0_10_1 +0 x_0_10_2 +0 x_0_10_3 -1 x_0_5_0_sb +1 x_0_5_1_sb +0 x_0_5_2_sb -1 x_0_5_3_sb +0 p0_0_5 +1 p1_0_5 >= -1
+1 x_0_10_0 +0 x_0_10_1 +0 x_0_10_2 +0 x_0_10_3 -1 x_0_5_0_sb -1 x_0_5_1_sb +0 x_0_5_2_sb +1 x_0_5_3_sb +0 p0_0_5 +1 p1_0_5 >= -1
-1 x_0_10_0 -1 x_0_10_1 +0 x_0_10_2 +1 x_0_10_3 +1 x_0_5_0_sb +0 x_0_5_1_sb +0 x_0_5_2_sb +0 x_0_5_3_sb +0 p0_0_5 +1 p1_0_5 >= -1
-1 x_0_10_0 +1 x_0_10_1 +0 x_0_10_2 -1 x_0_10_3 +1 x_0_5_0_sb +0 x_0_5_1_sb +0 x_0_5_2_sb +0 x_0_5_3_sb +0 p0_0_5 +1 p1_0_5 >= -1
+0 x_0_10_0 -1 x_0_10_1 +0 x_0_10_2 -1 x_0_10_3 +0 x_0_5_0_sb -1 x_0_5_1_sb +0 x_0_5_2_sb -1 x_0_5_3_sb +0 p0_0_5 +1 p1_0_5 >= -3
+1 x_0_10_0 +1 x_0_10_1 +0 x_0_10_2 +1 x_0_10_3 +0 x_0_5_0_sb +0 x_0_5_1_sb -1 x_0_5_2_sb +0 x_0_5_3_sb +0 p0_0_5 +0 p1_0_5 >= 0
-1 x_0_10_0 +0 x_0_10_1 +1 x_0_10_2 -1 x_0_10_3 +0 x_0_5_0_sb -1 x_0_5_1_sb -1 x_0_5_2_sb +0 x_0_5_3_sb +0 p0_0_5 -1 p1_0_5 >= -4
+1 x_0_10_0 +1 x_0_10_1 +0 x_0_10_2 -1 x_0_10_3 +1 x_0_5_0_sb +1 x_0_5_1_sb +0 x_0_5_2_sb -1 x_0_5_3_sb +0 p0_0_5 -1 p1_0_5 >= -2
+1 x_0_10_0 +0 x_0_10_1 +1 x_0_10_2 +0 x_0_10_3 +0 x_0_5_0_sb +1 x_0_5_1_sb +1 x_0_5_2_sb +1 x_0_5_3_sb +0 p0_0_5 -1 p1_0_5 >= 0
+1 x_0_10_0 +0 x_0_10_1 -1 x_0_10_2 -1 x_0_10_3 -1 x_0_5_0_sb -1 x_0_5_1_sb +0 x_0_5_2_sb -1 x_0_5_3_sb +0 p0_0_5 -1 p1_0_5 >= -5
+0 x_0_10_0 +0 x_0_10_1 +1 x_0_10_2 +1 x_0_10_3 -1 x_0_5_0_sb +0 x_0_5_1_sb -1 x_0_5_2_sb +0 x_0_5_3_sb +0 p0_0_5 -1 p1_0_5 >= -2
+0 x_0_10_0 +0 x_0_10_1 +1 x_0_10_2 +0 x_0_10_3 +1 x_0_5_0_sb -1 x_0_5_1_sb +0 x_0_5_2_sb -1 x_0_5_3_sb +0 p0_0_5 +0 p1_0_5 >= -1
+0 x_0_10_0 -1 x_0_10_1 +0 x_0_10_2 -1 x_0_10_3 +0 x_0_5_0_sb +1 x_0_5_1_sb +0 x_0_5_2_sb +1 x_0_5_3_sb +0 p0_0_5 +1 p1_0_5 >= -1
+0 x_0_10_0 +1 x_0_10_1 +0 x_0_10_2 +1 x_0_10_3 +0 x_0_5_0_sb -1 x_0_5_1_sb +0 x_0_5_2_sb -1 x_0_5_3_sb +0 p0_0_5 +1 p1_0_5 >= -1
+1 x_0_10_0 -1 x_0_10_1 +1 x_0_10_2 -1 x_0_10_3 +1 x_0_5_0_sb +0 x_0_5_1_sb +0 x_0_5_2_sb +0 x_0_5_3_sb +0 p0_0_5 +0 p1_0_5 >= -1
+1 x_0_10_0 +0 x_0_10_1 +0 x_0_10_2 +0 x_0_10_3 +1 x_0_5_0_sb -1 x_0_5_1_sb +1 x_0_5_2_sb -1 x_0_5_3_sb +0 p0_0_5 +0 p1_0_5 >= -1
+0 x_0_10_0 -1 x_0_10_1 +0 x_0_10_2 -1 x_0_10_3 +1 x_0_5_0_sb -1 x_0_5_1_sb -1 x_0_5_2_sb -1 x_0_5_3_sb +0 p0_0_5 +0 p1_0_5 >= -4
+1 x_0_10_0 +0 x_0_10_1 +0 x_0_10_2 +1 x_0_10_3 +0 x_0_5_0_sb -1 x_0_5_1_sb -1 x_0_5_2_sb +1 x_0_5_3_sb +0 p0_0_5 -1 p1_0_5 >= -2
+0 x_0_10_0 +0 x_0_10_1 -1 x_0_10_2 +1 x_0_10_3 -1 x_0_5_0_sb +1 x_0_5_1_sb +0 x_0_5_2_sb -1 x_0_5_3_sb +0 p0_0_5 -1 p1_0_5 >= -3
+0 x_0_10_0 +1 x_0_10_1 +0 x_0_10_2 +1 x_0_10_3 -1 x_0_5_0_sb -1 x_0_5_1_sb +0 x_0_5_2_sb +1 x_0_5_3_sb +0 p0_0_5 -1 p1_0_5 >= -2
-1 x_0_10_0 +1 x_0_10_1 +0 x_0_10_2 -1 x_0_10_3 +0 x_0_5_0_sb +0 x_0_5_1_sb -1 x_0_5_2_sb +1 x_0_5_3_sb +0 p0_0_5 -1 p1_0_5 >= -3
-1 x_0_10_0 +0 x_0_10_1 +0 x_0_10_2 +0 x_0_10_3 -1 x_0_5_0_sb +1 x_0_5_1_sb +0 x_0_5_2_sb -1 x_0_5_3_sb +0 p0_0_5 -1 p1_0_5 >= -3
+0 x_0_10_0 +0 x_0_10_1 -1 x_0_10_2 +0 x_0_10_3 +1 x_0_5_0_sb +1 x_0_5_1_sb +0 x_0_5_2_sb +1 x_0_5_3_sb +0 p0_0_5 +0 p1_0_5 >= 0
+0 x_0_12_0 +0 x_0_12_1 +0 x_0_12_2 +0 x_0_12_3 +0 x_0_6_0_sb +0 x_0_6_1_sb +0 x_0_6_2_sb +0 x_0_6_3_sb -1 p0_0_6 -1 p1_0_6 >= -1
+0 x_0_12_0 +0 x_0_12_1 +0 x_0_12_2 +0 x_0_12_3 +0 x_0_6_0_sb +0 x_0_6_1_sb +0 x_0_6_2_sb -1 x_0_6_3_sb +1 p0_0_6 +1 p1_0_6 >= 0
+0 x_0_12_0 +0 x_0_12_1 +0 x_0_12_2 +0 x_0_12_3 +0 x_0_6_0_sb -1 x_0_6_1_sb +0 x_0_6_2_sb +0 x_0_6_3_sb +1 p0_0_6 +1 p1_0_6 >= 0
+0 x_0_12_0 +0 x_0_12_1 +0 x_0_12_2 +0 x_0_12_3 -1 x_0_6_0_sb +0 x_0_6_1_sb +0 x_0_6_2_sb +0 x_0_6_3_sb +1 p0_0_6 +1 p1_0_6 >= 0
+0 x_0_12_0 +0 x_0_12_1 +0 x_0_12_2 +0 x_0_12_3 +1 x_0_6_0_sb +1 x_0_6_1_sb +1 x_0_6_2_sb +1 x_0_6_3_sb +0 p0_0_6 -1 p1_0_6 >= 0
+0 x_0_12_0 +0 x_0_12_1 +0 x_0_12_2 -1 x_0_12_3 +1 x_0_6_0_sb +1 x_0_6_1_sb +0 x_0_6_2_sb +1 x_0_6_3_sb +0 p0_0_6 +1 p1_0_6 >= 0
-1 x_0_12_0 +0 x_0_12_1 -1 x_0_12_2 +0 x_0_12_3 +1 x_0_6_0_sb +0 x_0_6_1_sb +0 x_0_6_2_sb +1 x_0_6_3_sb +0 p0_0_6 -1 p1_0_6 >= -2
+1 x_0_12_0 +0 x_0_12_1 +1 x_0_12_2 +0 x_0_12_3 +1 x_0_6_0_sb +0 x_0_6_1_sb +1 x_0_6_2_sb +0 x_0_6_3_sb +0 p0_0_6 -1 p1_0_6 >= 0
+0 x_0_12_0 +0 x_0_12_1 +0 x_0_12_2 +1 x_0_12_3 +0 x_0_6_0_sb +1 x_0_6_1_sb -1 x_0_6_2_sb -1 x_0_6_3_sb +0 p0_0_6 -1 p1_0_6 >= -2
-1 x_0_12_0 +0 x_0_12_1 +0 x_0_12_2 -1 x_0_12_3 -1 x_0_6_0_sb +0 x_0_6_1_sb +0 x_0_6_2_sb +1 x_0_6_3_sb +0 p0_0_6 -1 p1_0_6 >= -3
+0 x_0_12_0 +0 x_0_12_1 +0 x_0_12_2 +1 x_0_12_3 -1 x_0_6_0_sb -1 x_0_6_1_sb -1 x_0_6_2_sb +0 x_0_6_3_sb +0 p0_0_6 -1 p1_0_6 >= -3
+1 x_0_12_0 +1 x_0_12_1 +0 x_0_12_2 +1 x_0_12_3 +0 x_0_6_0_sb +0 x_0_6_1_sb +0 x_0_6_2_sb +0 x_0_6_3_sb -1 p0_0_6 +0 p1_0_6 >= 0
+0 x_0_12_0 +0 x_0_12_1 +1 x_0_12_2 +1 x_0_12_3 +0 x_0_6_0_sb -1 x_0_6_1_sb +1 x_0_6_2_sb +0 x_0_6_3_sb +0 p0_0_6 -1 p1_0_6 >= -1
+0 x_0_12_0 +1 x_0_12_1 +0 x_0_12_2 -1 x_0_12_3 -1 x_0_6_0_sb +0 x_0_6_1_sb -1 x_0_6_2_sb +0 x_0_6_3_sb +0 p0_0_6 -1 p1_0_6 >= -3
+0 x_0_12_0 +1 x_0_12_1 +1 x_0_12_2 +0 x_0_12_3 +0 x_0_6_0_sb +0 x_0_6_1_sb +1 x_0_6_2_sb -1 x_0_6_3_sb +0 p0_0_6 -1 p1_0_6 >= -1
-1 x_0_12_0 +0 x_0_12_1 -1 x_0_12_2 +0 x_0_12_3 -1 x_0_6_0_sb +0 x_0_6_1_sb +1 x_0_6_2_sb +0 x_0_6_3_sb +0 p0_0_6 -1 p1_0_6 >= -3
+0 x_0_12_0 -1 x_0_12_1 -1 x_0_12_2 +0 x_0_12_3 +0 x_0_6_0_sb +1 x_0_6_1_sb +0 x_0_6_2_sb +1 x_0_6_3_sb +0 p0_0_6 -1 p1_0_6 >= -2
+0 x_0_12_0 -1 x_0_12_1 +0 x_0_12_2 +0 x_0_12_3 +1 x_0_6_0_sb +1 x_0_6_1_sb +0 x_0_6_2_sb +1 x_0_6_3_sb +0 p0_0_6 +1 p1_0_6 >= 0
-1 x_0_12_0 -1 x_0_12_1 +0 x_0_12_2 +1 x_0_12_3 +0 x_0_6_0_sb +1 x_0_6_1_sb +0 x_0_6_2_sb +1 x_0_6_3_sb +0 p0_0_6 -1 p1_0_6 >= -2
+0 x_0_12_0 -1 x_0_12_1 +0 x_0_12_2 +0 x_0_12_3 +1 x_0_6_0_sb +0 x_0_6_1_sb +1 x_0_6_2_sb +1 x_0_6_3_sb +0 p0_0_6 -1 p1_0_6 >= -1
-1 x_0_12_0 +0 x_0_12_1 -1 x_0_12_2 +0 x_0_12_3 +1 x_0_6_0_sb +1 x_0_6_1_sb +0 x_0_6_2_sb +0 x_0_6_3_sb +0 p0_0_6 -1 p1_0_6 >= -2
+0 x_0_12_0 +1 x_0_12_1 -1 x_0_12_2 -1 x_0_12_3 +0 x_0_6_0_sb +0 x_0_6_1_sb +0 x_0_6_2_sb +1 x_0_6_3_sb +0 p0_0_6 -1 p1_0_6 >= -2
-1 x_0_12_0 -1 x_0_12_1 +0 x_0_12_2 -1 x_0_12_3 +0 x_0_6_0_sb +1 x_0_6_1_sb +0 x_0_6_2_sb -1 x_0_6_3_sb +0 p0_0_6 -1 p1_0_6 >= -4
-1 x_0_12_0 +1 x_0_12_1 +0 x_0_12_2 +1 x_0_12_3 +0 x_0_6_0_sb +1 x_0_6_1_sb +0 x_0_6_2_sb +1 x_0_6_3_sb +0 p0_0_6 +1 p1_0_6 >= 0
+0 x_0_12_0 +0 x_0_12_1 +0 x_0_12_2 +0 x_0_12_3 +1 x_0_6_0_sb -1 x_0_6_1_sb +0 x_0_6_2_sb -1 x_0_6_3_sb +0 p0_0_6 +1 p1_0_6 >= -1
+1 x_0_12_0 +0 x_0_12_1 +1 x_0_12_2 +0 x_0_12_3 +1 x_0_6_0_sb -1 x_0_6_1_sb +0 x_0_6_2_sb +0 x_0_6_3_sb +0 p0_0_6 -1 p1_0_6 >= -1
+0 x_0_12_0 +1 x_0_12_1 +0 x_0_12_2 +1 x_0_12_3 +0 x_0_6_0_sb -1 x_0_6_1_sb -1 x_0_6_2_sb +0 x_0_6_3_sb +0 p0_0_6 -1 p1_0_6 >= -2
+1 x_0_12_0 -1 x_0_12_1 +0 x_0_12_2 -1 x_0_12_3 +0 x_0_6_0_sb +0 x_0_6_1_sb +1 x_0_6_2_sb +0 x_0_6_3_sb +0 p0_0_6 +0 p1_0_6 >= -1
+1 x_0_12_0 -1 x_0_12_1 -1 x_0_12_2 +0 x_0_12_3 +0 x_0_6_0_sb +0 x_0_6_1_sb +1 x_0_6_2_sb -1 x_0_6_3_sb +0 p0_0_6 -1 p1_0_6 >= -3
+1 x_0_12_0 -1 x_0_12_1 +0 x_0_12_2 -1 x_0_12_3 +0 x_0_6_0_sb +0 x_0_6_1_sb +0 x_0_6_2_sb +0 x_0_6_3_sb +0 p0_0_6 +1 p1_0_6 >= -1
+1 x_0_12_0 +0 x_0_12_1 +0 x_0_12_2 +0 x_0_12_3 -1 x_0_6_0_sb +1 x_0_6_1_sb +0 x_0_6_2_sb -1 x_0_6_3_sb +0 p0_0_6 +1 p1_0_6 >= -1
+1 x_0_12_0 +0 x_0_12_1 +0 x_0_12_2 +0 x_0_12_3 -1 x_0_6_0_sb -1 x_0_6_1_sb +0 x_0_6_2_sb +1 x_0_6_3_sb +0 p0_0_6 +1 p1_0_6 >= -1
-1 x_0_12_0 -1 x_0_12_1 +0 x_0_12_2 +1 x_0_12_3 +1 x_0_6_0_sb +0 x_0_6_1_sb +0 x_0_6_2_sb +0 x_0_6_3_sb +0 p0_0_6 +1 p1_0_6 >= -1
-1 x_0_12_0 +1 x_0_12_1 +0 x_0_12_2 -1 x_0_12_3 +1 x_0_6_0_sb +0 x_0_6_1_sb +0 x_0_6_2_sb +0 x_0_6_3_sb +0 p0_0_6 +1 p1_0_6 >= -1
+0 x_0_12_0 -1 x_0_12_1 +0 x_0_12_2 -1 x_0_12_3 +0 x_0_6_0_sb -1 x_0_6_1_sb +0 x_0_6_2_sb -1 x_0_6_3_sb +0 p0_0_6 +1 p1_0_6 >= -3
+1 x_0_12_0 +1 x_0_12_1 +0 x_0_12_2 +1 x_0_12_3 +0 x_0_6_0_sb +0 x_0_6_1_sb -1 x_0_6_2_sb +0 x_0_6_3_sb +0 p0_0_6 +0 p1_0_6 >= 0
-1 x_0_12_0 +0 x_0_12_1 +1 x_0_12_2 -1 x_0_12_3 +0 x_0_6_0_sb -1 x_0_6_1_sb -1 x_0_6_2_sb +0 x_0_6_3_sb +0 p0_0_6 -1 p1_0_6 >= -4
+1 x_0_12_0 +1 x_0_12_1 +0 x_0_12_2 -1 x_0_12_3 +1 x_0_6_0_sb +1 x_0_6_1_sb +0 x_0_6_2_sb -1 x_0_6_3_sb +0 p0_0_6 -1 p1_0_6 >= -2
+1 x_0_12_0 +0 x_0_12_1 +1 x_0_12_2 +0 x_0_12_3 +0 x_0_6_0_sb +1 x_0_6_1_sb +1 x_0_6_2_sb +1 x_0_6_3_sb +0 p0_0_6 -1 p1_0_6 >= 0
+1 x_0_12_0 +0 x_0_12_1 -1 x_0_12_2 -1 x_0_12_3 -1 x_0_6_0_sb -1 x_0_6_1_sb +0 x_0_6_2_sb -1 x_0_6_3_sb +0 p0_0_6 -1 p1_0_6 >= -5
+0 x_0_12_0 +0 x_0_12_1 +1 x_0_12_2 +1 x_0_12_3 -1 x_0_6_0_sb +0 x_0_6_1_sb -1 x_0_6_2_sb +0 x_0_6_3_sb +0 p0_0_6 -1 p1_0_6 >= -2
+0 x_0_12_0 +0 x_0_12_1 +1 x_0_12_2 +0 x_0_12_3 +1 x_0_6_0_sb -1 x_0_6_1_sb +0 x_0_6_2_sb -1 x_0_6_3_sb +0 p0_0_6 +0 p1_0_6 >= -1
+0 x_0_12_0 -1 x_0_12_1 +0 x_0_12_2 -1 x_0_12_3 +0 x_0_6_0_sb +1 x_0_6_1_sb +0 x_0_6_2_sb +1 x_0_6_3_sb +0 p0_0_6 +1 p1_0_6 >= -1
+0 x_0_12_0 +1 x_0_12_1 +0 x_0_12_2 +1 x_0_12_3 +0 x_0_6_0_sb -1 x_0_6_1_sb +0 x_0_6_2_sb -1 x_0_6_3_sb +0 p0_0_6 +1 p1_0_6 >= -1
+1 x_0_12_0 -1 x_0_12_1 +1 x_0_12_2 -1 x_0_12_3 +1 x_0_6_0_sb +0 x_0_6_1_sb +0 x_0_6_2_sb +0 x_0_6_3_sb +0 p0_0_6 +0 p1_0_6 >= -1
+1 x_0_12_0 +0 x_0_12_1 +0 x_0_12_2 +0 x_0_12_3 +1 x_0_6_0_sb -1 x_0_6_1_sb +1 x_0_6_2_sb -1 x_0_6_3_sb +0 p0_0_6 +0 p1_0_6 >= -1
+0 x_0_12_0 -1 x_0_12_1 +0 x_0_12_2 -1 x_0_12_3 +1 x_0_6_0_sb -1 x_0_6_1_sb -1 x_0_6_2_sb -1 x_0_6_3_sb +0 p0_0_6 +0 p1_0_6 >= -4
+1 x_0_12_0 +0 x_0_12_1 +0 x_0_12_2 +1 x_0_12_3 +0 x_0_6_0_sb -1 x_0_6_1_sb -1 x_0_6_2_sb +1 x_0_6_3_sb +0 p0_0_6 -1 p1_0_6 >= -2
+0 x_0_12_0 +0 x_0_12_1 -1 x_0_12_2 +1 x_0_12_3 -1 x_0_6_0_sb +1 x_0_6_1_sb +0 x_0_6_2_sb -1 x_0_6_3_sb +0 p0_0_6 -1 p1_0_6 >= -3
+0 x_0_12_0 +1 x_0_12_1 +0 x_0_12_2 +1 x_0_12_3 -1 x_0_6_0_sb -1 x_0_6_1_sb +0 x_0_6_2_sb +1 x_0_6_3_sb +0 p0_0_6 -1 p1_0_6 >= -2
-1 x_0_12_0 +1 x_0_12_1 +0 x_0_12_2 -1 x_0_12_3 +0 x_0_6_0_sb +0 x_0_6_1_sb -1 x_0_6_2_sb +1 x_0_6_3_sb +0 p0_0_6 -1 p1_0_6 >= -3
-1 x_0_12_0 +0 x_0_12_1 +0 x_0_12_2 +0 x_0_12_3 -1 x_0_6_0_sb +1 x_0_6_1_sb +0 x_0_6_2_sb -1 x_0_6_3_sb +0 p0_0_6 -1 p1_0_6 >= -3
+0 x_0_12_0 +0 x_0_12_1 -1 x_0_12_2 +0 x_0_12_3 +1 x_0_6_0_sb +1 x_0_6_1_sb +0 x_0_6_2_sb +1 x_0_6_3_sb +0 p0_0_6 +0 p1_0_6 >= 0
+0 x_0_14_0 +0 x_0_14_1 +0 x_0_14_2 +0 x_0_14_3 +0 x_0_7_0_sb +0 x_0_7_1_sb +0 x_0_7_2_sb +0 x_0_7_3_sb -1 p0_0_7 -1 p1_0_7 >= -1
+0 x_0_14_0 +0 x_0_14_1 +0 x_0_14_2 +0 x_0_14_3 +0 x_0_7_0_sb +0 x_0_7_1_sb +0 x_0_7_2_sb -1 x_0_7_3_sb +1 p0_0_7 +1 p1_0_7 >= 0
+0 x_0_14_0 +0 x_0_14_1 +0 x_0_14_2 +0 x_0_14_3 +0 x_0_7_0_sb -1 x_0_7_1_sb +0 x_0_7_2_sb +0 x_0_7_3_sb +1 p0_0_7 +1 p1_0_7 >= 0
+0 x_0_14_0 +0 x_0_14_1 +0 x_0_14_2 +0 x_0_14_3 -1 x_0_7_0_sb +0 x_0_7_1_sb +0 x_0_7_2_sb +0 x_0_7_3_sb +1 p0_0_7 +1 p1_0_7 >= 0
+0 x_0_14_0 +0 x_0_14_1 +0 x_0_14_2 +0 x_0_14_3 +1 x_0_7_0_sb +1 x_0_7_1_sb +1 x_0_7_2_sb +1 x_0_7_3_sb +0 p0_0_7 -1 p1_0_7 >= 0
+0 x_0_14_0 +0 x_0_14_1 +0 x_0_14_2 -1 x_0_14_3 +1 x_0_7_0_sb +1 x_0_7_1_sb +0 x_0_7_2_sb +1 x_0_7_3_sb +0 p0_0_7 +1 p1_0_7 >= 0
-1 x_0_14_0 +0 x_0_14_1 -1 x_0_14_2 +0 x_0_14_3 +1 x_0_7_0_sb +0 x_0_7_1_sb +0 x_0_7_2_sb +1 x_0_7_3_sb +0 p0_0_7 -1 p1_0_7 >= -2
+1 x_0_14_0 +0 x_0_14_1 +1 x_0_14_2 +0 x_0_14_3 +1 x_0_7_0_sb +0 x_0_7_1_sb +1 x_0_7_2_sb +0 x_0_7_3_sb +0 p0_0_7 -1 p1_0_7 >= 0
+0 x_0_14_0 +0 x_0_14_1 +0 x_0_14_2 +1 x_0_14_3 +0 x_0_7_0_sb +1 x_0_7_1_sb -1 x_0_7_2_sb -1 x_0_7_3_sb +0 p0_0_7 -1 p1_0_7 >= -2
-1 x_0_14_0 +0 x_0_14_1 +0 x_0_14_2 -1 x_0_14_3 -1 x_0_7_0_sb +0 x_0_7_1_sb +0 x_0_7_2_sb +1 x_0_7_3_sb +0 p0_0_7 -1 p1_0_7 >= -3
+0 x_0_14_0 +0 x_0_14_1 +0 x_0_14_2 +1 x_0_14_3 -1 x_0_7_0_sb -1 x_0_7_1_sb -1 x_0_7_2_sb +0 x_0_7_3_sb +0 p0_0_7 -1 p1_0_7 >= -3
+1 x_0_14_0 +1 x_0_14_1 +0 x_0_14_2 +1 x_0_14_3 +0 x_0_7_0_sb +0 x_0_7_1_sb +0 x_0_7_2_sb +0 x_0_7_3_sb -1 p0_0_7 +0 p1_0_7 >= 0
+0 x_0_14_0 +0 x_0_14_1 +1 x_0_14_2 +1 x_0_14_3 +0 x_0_7_0_sb -1 x_0_7_1_sb +1 x_0_7_2_sb +0 x_0_7_3_sb +0 p0_0_7 -1 p1_0_7 >= -1
+0 x_0_14_0 +1 x_0_14_1 +0 x_0_14_2 -1 x_0_14_3 -1 x_0_7_0_sb +0 x_0_7_1_sb -1 x_0_7_2_sb +0 x_0_7_3_sb +0 p0_0_7 -1 p1_0_7 >= -3
+0 x_0_14_0 +1 x_0_14_1 +1 x_0_14_2 +0 x_0_14_3 +0 x_0_7_0_sb +0 x_0_7_1_sb +1 x_0_7_2_sb -1 x_0_7_3_sb +0 p0_0_7 -1 p1_0_7 >= -1
-1 x_0_14_0 +0 x_0_14_1 -1 x_0_14_2 +0 x_0_14_3 -1 x_0_7_0_sb +0 x_0_7_1_sb +1 x_0_7_2_sb +0 x_0_7_3_sb +0 p0_0_7 -1 p1_0_7 >= -3
+0 x_0_14_0 -1 x_0_14_1 -1 x_0_14_2 +0 x_0_14_3 +0 x_0_7_0_sb +1 x_0_7_1_sb +0 x_0_7_2_sb +1 x_0_7_3_sb +0 p0_0_7 -1 p1_0_7 >= -2
+0 x_0_14_0 -1 x_0_14_1 +0 x_0_14_2 +0 x_0_14_3 +1 x_0_7_0_sb +1 x_0_7_1_sb +0 x_0_7_2_sb +1 x_0_7_3_sb +0 p0_0_7 +1 p1_0_7 >= 0
-1 x_0_14_0 -1 x_0_14_1 +0 x_0_14_2 +1 x_0_14_3 +0 x_0_7_0_sb +1 x_0_7_1_sb +0 x_0_7_2_sb +1 x_0_7_3_sb +0 p0_0_7 -1 p1_0_7 >= -2
+0 x_0_14_0 -1 x_0_14_1 +0 x_0_14_2 +0 x_0_14_3 +1 x_0_7_0_sb +0 x_0_7_1_sb +1 x_0_7_2_sb +1 x_0_7_3_sb +0 p0_0_7 -1 p1_0_7 >= -1
-1 x_0_14_0 +0 x_0_14_1 -1 x_0_14_2 +0 x_0_14_3 +1 x_0_7_0_sb +1 x_0_7_1_sb +0 x_0_7_2_sb +0 x_0_7_3_sb +0 p0_0_7 -1 p1_0_7 >= -2
+0 x_0_14_0 +1 x_0_14_1 -1 x_0_14_2 -1 x_0_14_3 +0 x_0_7_0_sb +0 x_0_7_1_sb +0 x_0_7_2_sb +1 x_0_7_3_sb +0 p0_0_7 -1 p1_0_7 >= -2
-1 x_0_14_0 -1 x_0_14_1 +0 x_0_14_2 -1 x_0_14_3 +0 x_0_7_0_sb +1 x_0_7_1_sb +0 x_0_7_2_sb -1 x_0_7_3_sb +0 p0_0_7 -1 p1_0_7 >= -4
-1 x_0_14_0 +1 x_0_14_1 +0 x_0_14_2 +1 x_0_14_3 +0 x_0_7_0_sb +1 x_0_7_1_sb +0 x_0_7_2_sb +1 x_0_7_3_sb +0 p0_0_7 +1 p1_0_7 >= 0
+0 x_0_14_0 +0 x_0_14_1 +0 x_0_14_2 +0 x_0_14_3 +1 x_0_7_0_sb -1 x_0_7_1_sb +0 x_0_7_2_sb -1 x_0_7_3_sb +0 p0_0_7 +1 p1_0_7 >= -1
+1 x_0_14_0 +0 x_0_14_1 +1 x_0_14_2 +0 x_0_14_3 +1 x_0_7_0_sb -1 x_0_7_1_sb +0 x_0_7_2_sb +0 x_0_7_3_sb +0 p0_0_7 -1 p1_0_7 >= -1
+0 x_0_14_0 +1 x_0_14_1 +0 x_0_14_2 +1 x_0_14_3 +0 x_0_7_0_sb -1 x_0_7_1_sb -1 x_0_7_2_sb +0 x_0_7_3_sb +0 p0_0_7 -1 p1_0_7 >= -2
+1 x_0_14_0 -1 x_0_14_1 +0 x_0_14_2 -1 x_0_14_3 +0 x_0_7_0_sb +0 x_0_7_1_sb +1 x_0_7_2_sb +0 x_0_7_3_sb +0 p0_0_7 +0 p1_0_7 >= -1
+1 x_0_14_0 -1 x_0_14_1 -1 x_0_14_2 +0 x_0_14_3 +0 x_0_7_0_sb +0 x_0_7_1_sb +1 x_0_7_2_sb -1 x_0_7_3_sb +0 p0_0_7 -1 p1_0_7 >= -3
+1 x_0_14_0 -1 x_0_14_1 +0 x_0_14_2 -1 x_0_14_3 +0 x_0_7_0_sb +0 x_0_7_1_sb +0 x_0_7_2_sb +0 x_0_7_3_sb +0 p0_0_7 +1 p1_0_7 >= -1
+1 x_0_14_0 +0 x_0_14_1 +0 x_0_14_2 +0 x_0_14_3 -1 x_0_7_0_sb +1 x_0_7_1_sb +0 x_0_7_2_sb -1 x_0_7_3_sb +0 p0_0_7 +1 p1_0_7 >= -1
+1 x_0_14_0 +0 x_0_14_1 +0 x_0_14_2 +0 x_0_14_3 -1 x_0_7_0_sb -1 x_0_7_1_sb +0 x_0_7_2_sb +1 x_0_7_3_sb +0 p0_0_7 +1 p1_0_7 >= -1
-1 x_0_14_0 -1 x_0_14_1 +0 x_0_14_2 +1 x_0_14_3 +1 x_0_7_0_sb +0 x_0_7_1_sb +0 x_0_7_2_sb +0 x_0_7_3_sb +0 p0_0_7 +1 p1_0_7 >= -1
-1 x_0_14_0 +1 x_0_14_1 +0 x_0_14_2 -1 x_0_14_3 +1 x_0_7_0_sb +0 x_0_7_1_sb +0 x_0_7_2_sb +0 x_0_7_3_sb +0 p0_0_7 +1 p1_0_7 >= -1
+0 x_0_14_0 -1 x_0_14_1 +0 x_0_14_2 -1 x_0_14_3 +0 x_0_7_0_sb -1 x_0_7_1_sb +0 x_0_7_2_sb -1 x_0_7_3_sb +0 p0_0_7 +1 p1_0_7 >= -3
+1 x_0_14_0 +1 x_0_14_1 +0 x_0_14_2 +1 x_0_14_3 +0 x_0_7_0_sb +0 x_0_7_1_sb -1 x_0_7_2_sb +0 x_0_7_3_sb +0 p0_0_7 +0 p1_0_7 >= 0
-1 x_0_14_0 +0 x_0_14_1 +1 x_0_14_2 -1 x_0_14_3 +0 x_0_7_0_sb -1 x_0_7_1_sb -1 x_0_7_2_sb +0 x_0_7_3_sb +0 p0_0_7 -1 p1_0_7 >= -4
+1 x_0_14_0 +1 x_0_14_1 +0 x_0_14_2 -1 x_0_14_3 +1 x_0_7_0_sb +1 x_0_7_1_sb +0 x_0_7_2_sb -1 x_0_7_3_sb +0 p0_0_7 -1 p1_0_7 >= -2
+1 x_0_14_0 +0 x_0_14_1 +1 x_0_14_2 +0 x_0_14_3 +0 x_0_7_0_sb +1 x_0_7_1_sb +1 x_0_7_2_sb +1 x_0_7_3_sb +0 p0_0_7 -1 p1_0_7 >= 0
+1 x_0_14_0 +0 x_0_14_1 -1 x_0_14_2 -1 x_0_14_3 -1 x_0_7_0_sb -1 x_0_7_1_sb +0 x_0_7_2_sb -1 x_0_7_3_sb +0 p0_0_7 -1 p1_0_7 >= -5
+0 x_0_14_0 +0 x_0_14_1 +1 x_0_14_2 +1 x_0_14_3 -1 x_0_7_0_sb +0 x_0_7_1_sb -1 x_0_7_2_sb +0 x_0_7_3_sb +0 p0_0_7 -1 p1_0_7 >= -2
+0 x_0_14_0 +0 x_0_14_1 +1 x_0_14_2 +0 x_0_14_3 +1 x_0_7_0_sb -1 x_0_7_1_sb +0 x_0_7_2_sb -1 x_0_7_3_sb +0 p0_0_7 +0 p1_0_7 >= -1
+0 x_0_14_0 -1 x_0_14_1 +0 x_0_14_2 -1 x_0_14_3 +0 x_0_7_0_sb +1 x_0_7_1_sb +0 x_0_7_2_sb +1 x_0_7_3_sb +0 p0_0_7 +1 p1_0_7 >= -1
+0 x_0_14_0 +1 x_0_14_1 +0 x_0_14_2 +1 x_0_14_3 +0 x_0_7_0_sb -1 x_0_7_1_sb +0 x_0_7_2_sb -1 x_0_7_3_sb +0 p0_0_7 +1 p1_0_7 >= -1
+1 x_0_14_0 -1 x_0_14_1 +1 x_0_14_2 -1 x_0_14_3 +1 x_0_7_0_sb +0 x_0_7_1_sb +0 x_0_7_2_sb +0 x_0_7_3_sb +0 p0_0_7 +0 p1_0_7 >= -1
+1 x_0_14_0 +0 x_0_14_1 +0 x_0_14_2 +0 x_0_14_3 +1 x_0_7_0_sb -1 x_0_7_1_sb +1 x_0_7_2_sb -1 x_0_7_3_sb +0 p0_0_7 +0 p1_0_7 >= -1
+0 x_0_14_0 -1 x_0_14_1 +0 x_0_14_2 -1 x_0_14_3 +1 x_0_7_0_sb -1 x_0_7_1_sb -1 x_0_7_2_sb -1 x_0_7_3_sb +0 p0_0_7 +0 p1_0_7 >= -4
+1 x_0_14_0 +0 x_0_14_1 +0 x_0_14_2 +1 x_0_14_3 +0 x_0_7_0_sb -1 x_0_7_1_sb -1 x_0_7_2_sb +1 x_0_7_3_sb +0 p0_0_7 -1 p1_0_7 >= -2
+0 x_0_14_0 +0 x_0_14_1 -1 x_0_14_2 +1 x_0_14_3 -1 x_0_7_0_sb +1 x_0_7_1_sb +0 x_0_7_2_sb -1 x_0_7_3_sb +0 p0_0_7 -1 p1_0_7 >= -3
+0 x_0_14_0 +1 x_0_14_1 +0 x_0_14_2 +1 x_0_14_3 -1 x_0_7_0_sb -1 x_0_7_1_sb +0 x_0_7_2_sb +1 x_0_7_3_sb +0 p0_0_7 -1 p1_0_7 >= -2
-1 x_0_14_0 +1 x_0_14_1 +0 x_0_14_2 -1 x_0_14_3 +0 x_0_7_0_sb +0 x_0_7_1_sb -1 x_0_7_2_sb +1 x_0_7_3_sb +0 p0_0_7 -1 p1_0_7 >= -3
-1 x_0_14_0 +0 x_0_14_1 +0 x_0_14_2 +0 x_0_14_3 -1 x_0_7_0_sb +1 x_0_7_1_sb +0 x_0_7_2_sb -1 x_0_7_3_sb +0 p0_0_7 -1 p1_0_7 >= -3
+0 x_0_14_0 +0 x_0_14_1 -1 x_0_14_2 +0 x_0_14_3 +1 x_0_7_0_sb +1 x_0_7_1_sb +0 x_0_7_2_sb +1 x_0_7_3_sb +0 p0_0_7 +0 p1_0_7 >= 0
+0 x_0_16_0 +0 x_0_16_1 +0 x_0_16_2 +0 x_0_16_3 +0 x_0_8_0_sb +0 x_0_8_1_sb +0 x_0_8_2_sb +0 x_0_8_3_sb -1 p0_0_8 -1 p1_0_8 >= -1
+0 x_0_16_0 +0 x_0_16_1 +0 x_0_16_2 +0 x_0_16_3 +0 x_0_8_0_sb +0 x_0_8_1_sb +0 x_0_8_2_sb -1 x_0_8_3_sb +1 p0_0_8 +1 p1_0_8 >= 0
+0 x_0_16_0 +0 x_0_16_1 +0 x_0_16_2 +0 x_0_16_3 +0 x_0_8_0_sb -1 x_0_8_1_sb +0 x_0_8_2_sb +0 x_0_8_3_sb +1 p0_0_8 +1 p1_0_8 >= 0
+0 x_0_16_0 +0 x_0_16_1 +0 x_0_16_2 +0 x_0_16_3 -1 x_0_8_0_sb +0 x_0_8_1_sb +0 x_0_8_2_sb +0 x_0_8_3_sb +1 p0_0_8 +1 p1_0_8 >= 0
+0 x_0_16_0 +0 x_0_16_1 +0 x_0_16_2 +0 x_0_16_3 +1 x_0_8_0_sb +1 x_0_8_1_sb +1 x_0_8_2_sb +1 x_0_8_3_sb +0 p0_0_8 -1 p1_0_8 >= 0
+0 x_0_16_0 +0 x_0_16_1 +0 x_0_16_2 -1 x_0_16_3 +1 x_0_8_0_sb +1 x_0_8_1_sb +0 x_0_8_2_sb +1 x_0_8_3_sb +0 p0_0_8 +1 p1_0_8 >= 0
-1 x_0_16_0 +0 x_0_16_1 -1 x_0_16_2 +0 x_0_16_3 +1 x_0_8_0_sb +0 x_0_8_1_sb +0 x_0_8_2_sb +1 x_0_8_3_sb +0 p0_0_8 -1 p1_0_8 >= -2
+1 x_0_16_0 +0 x_0_16_1 +1 x_0_16_2 +0 x_0_16_3 +1 x_0_8_0_sb +0 x_0_8_1_sb +1 x_0_8_2_sb +0 x_0_8_3_sb +0 p0_0_8 -1 p1_0_8 >= 0
+0 x_0_16_0 +0 x_0_16_1 +0 x_0_16_2 +1 x_0_16_3 +0 x_0_8_0_sb +1 x_0_8_1_sb -1 x_0_8_2_sb -1 x_0_8_3_sb +0 p0_0_8 -1 p1_0_8 >= -2
-1 x_0_16_0 +0 x_0_16_1 +0 x_0_16_2 -1 x_0_16_3 -1 x_0_8_0_sb +0 x_0_8_1_sb +0 x_0_8_2_sb +1 x_0_8_3_sb +0 p0_0_8 -1 p1_0_8 >= -3
+0 x_0_16_0 +0 x_0_16_1 +0 x_0_16_2 +1 x_0_16_3 -1 x_0_8_0_sb -1 x_0_8_1_sb -1 x_0_8_2_sb +0 x_0_8_3_sb +0 p0_0_8 -1 p1_0_8 >= -3
+1 x_0_16_0 +1 x_0_16_1 +0 x_0_16_2 +1 x_0_16_3 +0 x_0_8_0_sb +0 x_0_8_1_sb +0 x_0_8_2_sb +0 x_0_8_3_sb -1 p0_0_8 +0 p1_0_8 >= 0
+0 x_0_16_0 +0 x_0_16_1 +1 x_0_16_2 +1 x_0_16_3 +0 x_0_8_0_sb -1 x_0_8_1_sb +1 x_0_8_2_sb +0 x_0_8_3_sb +0 p0_0_8 -1 p1_0_8 >= -1
+0 x_0_16_0 +1 x_0_16_1 +0 x_0_16_2 -1 x_0_16_3 -1 x_0_8_0_sb +0 x_0_8_1_sb -1 x_0_8_2_sb +0 x_0_8_3_sb +0 p0_0_8 -1 p1_0_8 >= -3
+0 x_0_16_0 +1 x_0_16_1 +1 x_0_16_2 +0 x_0_16_3 +0 x_0_8_0_sb +0 x_0_8_1_sb +1 x_0_8_2_sb -1 x_0_8_3_sb +0 p0_0_8 -1 p1_0_8 >= -1
-1 x_0_16_0 +0 x_0_16_1 -1 x_0_16_2 +0 x_0_16_3 -1 x_0_8_0_sb +0 x_0_8_1_sb +1 x_0_8_2_sb +0 x_0_8_3_sb +0 p0_0_8 -1 p1_0_8 >= -3
+0 x_0_16_0 -1 x_0_16_1 -1 x_0_16_2 +0 x_0_16_3 +0 x_0_8_0_sb +1 x_0_8_1_sb +0 x_0_8_2_sb +1 x_0_8_3_sb +0 p0_0_8 -1 p1_0_8 >= -2
+0 x_0_16_0 -1 x_0_16_1 +0 x_0_16_2 +0 x_0_16_3 +1 x_0_8_0_sb +1 x_0_8_1_sb +0 x_0_8_2_sb +1 x_0_8_3_sb +0 p0_0_8 +1 p1_0_8 >= 0
-1 x_0_16_0 -1 x_0_16_1 +0 x_0_16_2 +1 x_0_16_3 +0 x_0_8_0_sb +1 x_0_8_1_sb +0 x_0_8_2_sb +1 x_0_8_3_sb +0 p0_0_8 -1 p1_0_8 >= -2
+0 x_0_16_0 -1 x_0_16_1 +0 x_0_16_2 +0 x_0_16_3 +1 x_0_8_0_sb +0 x_0_8_1_sb +1 x_0_8_2_sb +1 x_0_8_3_sb +0 p0_0_8 -1 p1_0_8 >= -1
-1 x_0_16_0 +0 x_0_16_1 -1 x_0_16_2 +0 x_0_16_3 +1 x_0_8_0_sb +1 x_0_8_1_sb +0 x_0_8_2_sb +0 x_0_8_3_sb +0 p0_0_8 -1 p1_0_8 >= -2
+0 x_0_16_0 +1 x_0_16_1 -1 x_0_16_2 -1 x_0_16_3 +0 x_0_8_0_sb +0 x_0_8_1_sb +0 x_0_8_2_sb +1 x_0_8_3_sb +0 p0_0_8 -1 p1_0_8 >= -2
-1 x_0_16_0 -1 x_0_16_1 +0 x_0_16_2 -1 x_0_16_3 +0 x_0_8_0_sb +1 x_0_8_1_sb +0 x_0_8_2_sb -1 x_0_8_3_sb +0 p0_0_8 -1 p1_0_8 >= -4
-1 x_0_16_0 +1 x_0_16_1 +0 x_0_16_2 +1 x_0_16_3 +0 x_0_8_0_sb +1 x_0_8_1_sb +0 x_0_8_2_sb +1 x_0_8_3_sb +0 p0_0_8 +1 p1_0_8 >= 0
+0 x_0_16_0 +0 x_0_16_1 +0 x_0_16_2 +0 x_0_16_3 +1 x_0_8_0_sb -1 x_0_8_1_sb +0 x_0_8_2_sb -1 x_0_8_3_sb +0 p0_0_8 +1 p1_0_8 >= -1
+1 x_0_16_0 +0 x_0_16_1 +1 x_0_16_2 +0 x_0_16_3 +1 x_0_8_0_sb -1 x_0_8_1_sb +0 x_0_8_2_sb +0 x_0_8_3_sb +0 p0_0_8 -1 p1_0_8 >= -1
+0 x_0_16_0 +1 x_0_16_1 +0 x_0_16_2 +1 x_0_16_3 +0 x_0_8_0_sb -1 x_0_8_1_sb -1 x_0_8_2_sb +0 x_0_8_3_sb +0 p0_0_8 -1 p1_0_8 >= -2
+1 x_0_16_0 -1 x_0_16_1 +0 x_0_16_2 -1 x_0_16_3 +0 x_0_8_0_sb +0 x_0_8_1_sb +1 x_0_8_2_sb +0 x_0_8_3_sb +0 p0_0_8 +0 p1_0_8 >= -1
+1 x_0_16_0 -1 x_0_16_1 -1 x_0_16_2 +0 x_0_16_3 +0 x_0_8_0_sb +0 x_0_8_1_sb +1 x_0_8_2_sb -1 x_0_8_3_sb +0 p0_0_8 -1 p1_0_8 >= -3
+1 x_0_16_0 -1 x_0_16_1 +0 x_0_16_2 -1 x_0_16_3 +0 x_0_8_0_sb +0 x_0_8_1_sb +0 x_0_8_2_sb +0 x_0_8_3_sb +0 p0_0_8 +1 p1_0_8 >= -1
+1 x_0_16_0 +0 x_0_16_1 +0 x_0_16_2 +0 x_0_16_3 -1 x_0_8_0_sb +1 x_0_8_1_sb +0 x_0_8_2_sb -1 x_0_8_3_sb +0 p0_0_8 +1 p1_0_8 >= -1
+1 x_0_16_0 +0 x_0_16_1 +0 x_0_16_2 +0 x_0_16_3 -1 x_0_8_0_sb -1 x_0_8_1_sb +0 x_0_8_2_sb +1 x_0_8_3_sb +0 p0_0_8 +1 p1_0_8 >= -1
-1 x_0_16_0 -1 x_0_16_1 +0 x_0_16_2 +1 x_0_16_3 +1 x_0_8_0_sb +0 x_0_8_1_sb +0 x_0_8_2_sb +0 x_0_8_3_sb +0 p0_0_8 +1 p1_0_8 >= -1
-1 x_0_16_0 +1 x_0_16_1 +0 x_0_16_2 -1 x_0_16_3 +1 x_0_8_0_sb +0 x_0_8_1_sb +0 x_0_8_2_sb +0 x_0_8_3_sb +0 p0_0_8 +1 p1_0_8 >= -1
+0 x_0_16_0 -1 x_0_16_1 +0 x_0_16_2 -1 x_0_16_3 +0 x_0_8_0_sb -1 x_0_8_1_sb +0 x_0_8_2_sb -1 x_0_8_3_sb +0 p0_0_8 +1 p1_0_8 >= -3
+1 x_0_16_0 +1 x_0_16_1 +0 x_0_16_2 +1 x_0_16_3 +0 x_0_8_0_sb +0 x_0_8_1_sb -1 x_0_8_2_sb +0 x_0_8_3_sb +0 p0_0_8 +0 p1_0_8 >= 0
-1 x_0_16_0 +0 x_0_16_1 +1 x_0_16_2 -1 x_0_16_3 +0 x_0_8_0_sb -1 x_0_8_1_sb -1 x_0_8_2_sb +0 x_0_8_3_sb +0 p0_0_8 -1 p1_0_8 >= -4
+1 x_0_16_0 +1 x_0_16_1 +0 x_0_16_2 -1 x_0_16_3 +1 x_0_8_0_sb +1 x_0_8_1_sb +0 x_0_8_2_sb -1 x_0_8_3_sb +0 p0_0_8 -1 p1_0_8 >= -2
+1 x_0_16_0 +0 x_0_16_1 +1 x_0_16_2 +0 x_0_16_3 +0 x_0_8_0_sb +1 x_0_8_1_sb +1 x_0_8_2_sb +1 x_0_8_3_sb +0 p0_0_8 -1 p1_0_8 >= 0
+1 x_0_16_0 +0 x_0_16_1 -1 x_0_16_2 -1 x_0_16_3 -1 x_0_8_0_sb -1 x_0_8_1_sb +0 x_0_8_2_sb -1 x_0_8_3_sb +0 p0_0_8 -1 p1_0_8 >= -5
+0 x_0_16_0 +0 x_0_16_1 +1 x_0_16_2 +1 x_0_16_3 -1 x_0_8_0_sb +0 x_0_8_1_sb -1 x_0_8_2_sb +0 x_0_8_3_sb +0 p0_0_8 -1 p1_0_8 >= -2
+0 x_0_16_0 +0 x_0_16_1 +1 x_0_16_2 +0 x_0_16_3 +1 x_0_8_0_sb -1 x_0_8_1_sb +0 x_0_8_2_sb -1 x_0_8_3_sb +0 p0_0_8 +0 p1_0_8 >= -1
+0 x_0_16_0 -1 x_0_16_1 +0 x_0_16_2 -1 x_0_16_3 +0 x_0_8_0_sb +1 x_0_8_1_sb +0 x_0_8_2_sb +1 x_0_8_3_sb +0 p0_0_8 +1 p1_0_8 >= -1
+0 x_0_16_0 +1 x_0_16_1 +0 x_0_16_2 +1 x_0_16_3 +0 x_0_8_0_sb -1 x_0_8_1_sb +0 x_0_8_2_sb -1 x_0_8_3_sb +0 p0_0_8 +1 p1_0_8 >= -1
+1 x_0_16_0 -1 x_0_16_1 +1 x_0_16_2 -1 x_0_16_3 +1 x_0_8_0_sb +0 x_0_8_1_sb +0 x_0_8_2_sb +0 x_0_8_3_sb +0 p0_0_8 +0 p1_0_8 >= -1
+1 x_0_16_0 +0 x_0_16_1 +0 x_0_16_2 +0 x_0_16_3 +1 x_0_8_0_sb -1 x_0_8_1_sb +1 x_0_8_2_sb -1 x_0_8_3_sb +0 p0_0_8 +0 p1_0_8 >= -1
+0 x_0_16_0 -1 x_0_16_1 +0 x_0_16_2 -1 x_0_16_3 +1 x_0_8_0_sb -1 x_0_8_1_sb -1 x_0_8_2_sb -1 x_0_8_3_sb +0 p0_0_8 +0 p1_0_8 >= -4
+1 x_0_16_0 +0 x_0_16_1 +0 x_0_16_2 +1 x_0_16_3 +0 x_0_8_0_sb -1 x_0_8_1_sb -1 x_0_8_2_sb +1 x_0_8_3_sb +0 p0_0_8 -1 p1_0_8 >= -2
+0 x_0_16_0 +0 x_0_16_1 -1 x_0_16_2 +1 x_0_16_3 -1 x_0_8_0_sb +1 x_0_8_1_sb +0 x_0_8_2_sb -1 x_0_8_3_sb +0 p0_0_8 -1 p1_0_8 >= -3
+0 x_0_16_0 +1 x_0_16_1 +0 x_0_16_2 +1 x_0_16_3 -1 x_0_8_0_sb -1 x_0_8_1_sb +0 x_0_8_2_sb +1 x_0_8_3_sb +0 p0_0_8 -1 p1_0_8 >= -2
-1 x_0_16_0 +1 x_0_16_1 +0 x_0_16_2 -1 x_0_16_3 +0 x_0_8_0_sb +0 x_0_8_1_sb -1 x_0_8_2_sb +1 x_0_8_3_sb +0 p0_0_8 -1 p1_0_8 >= -3
-1 x_0_16_0 +0 x_0_16_1 +0 x_0_16_2 +0 x_0_16_3 -1 x_0_8_0_sb +1 x_0_8_1_sb +0 x_0_8_2_sb -1 x_0_8_3_sb +0 p0_0_8 -1 p1_0_8 >= -3
+0 x_0_16_0 +0 x_0_16_1 -1 x_0_16_2 +0 x_0_16_3 +1 x_0_8_0_sb +1 x_0_8_1_sb +0 x_0_8_2_sb +1 x_0_8_3_sb +0 p0_0_8 +0 p1_0_8 >= 0
+0 x_0_18_0 +0 x_0_18_1 +0 x_0_18_2 +0 x_0_18_3 +0 x_0_9_0_sb +0 x_0_9_1_sb +0 x_0_9_2_sb +0 x_0_9_3_sb -1 p0_0_9 -1 p1_0_9 >= -1
+0 x_0_18_0 +0 x_0_18_1 +0 x_0_18_2 +0 x_0_18_3 +0 x_0_9_0_sb +0 x_0_9_1_sb +0 x_0_9_2_sb -1 x_0_9_3_sb +1 p0_0_9 +1 p1_0_9 >= 0
+0 x_0_18_0 +0 x_0_18_1 +0 x_0_18_2 +0 x_0_18_3 +0 x_0_9_0_sb -1 x_0_9_1_sb +0 x_0_9_2_sb +0 x_0_9_3_sb +1 p0_0_9 +1 p1_0_9 >= 0
+0 x_0_18_0 +0 x_0_18_1 +0 x_0_18_2 +0 x_0_18_3 -1 x_0_9_0_sb +0 x_0_9_1_sb +0 x_0_9_2_sb +0 x_0_9_3_sb +1 p0_0_9 +1 p1_0_9 >= 0
+0 x_0_18_0 +0 x_0_18_1 +0 x_0_18_2 +0 x_0_18_3 +1 x_0_9_0_sb +1 x_0_9_1_sb +1 x_0_9_2_sb +1 x_0_9_3_sb +0 p0_0_9 -1 p1_0_9 >= 0
+0 x_0_18_0 +0 x_0_18_1 +0 x_0_18_2 -1 x_0_18_3 +1 x_0_9_0_sb +1 x_0_9_1_sb +0 x_0_9_2_sb +1 x_0_9_3_sb +0 p0_0_9 +1 p1_0_9 >= 0
-1 x_0_18_0 +0 x_0_18_1 -1 x_0_18_2 +0 x_0_18_3 +1 x_0_9_0_sb +0 x_0_9_1_sb +0 x_0_9_2_sb +1 x_0_9_3_sb +0 p0_0_9 -1 p1_0_9 >= -2
+1 x_0_18_0 +0 x_0_18_1 +1 x_0_18_2 +0 x_0_18_3 +1 x_0_9_0_sb +0 x_0_9_1_sb +1 x_0_9_2_sb +0 x_0_9_3_sb +0 p0_0_9 -1 p1_0_9 >= 0
+0 x_0_18_0 +0 x_0_18_1 +0 x_0_18_2 +1 x_0_18_3 +0 x_0_9_0_sb +1 x_0_9_1_sb -1 x_0_9_2_sb -1 x_0_9_3_sb +0 p0_0_9 -1 p1_0_9 >= -2
-1 x_0_18_0 +0 x_0_18_1 +0 x_0_18_2 -1 x_0_18_3 -1 x_0_9_0_sb +0 x_0_9_1_sb +0 x_0_9_2_sb +1 x_0_9_3_sb +0 p0_0_9 -1 p1_0_9 >= -3
+0 x_0_18_0 +0 x_0_18_1 +0 x_0_18_2 +1 x_0_18_3 -1 x_0_9_0_sb -1 x_0_9_1_sb -1 x_0_9_2_sb +0 x_0_9_3_sb +0 p0_0_9 -1 p1_0_9 >= -3
+1 x_0_18_0 +1 x_0_18_1 +0 x_0_18_2 +1 x_0_18_3 +0 x_0_9_0_sb +0 x_0_9_1_sb +0 x_0_9_2_sb +0 x_0_9_3_sb -1 p0_0_9 +0 p1_0_9 >= 0
+0 x_0_18_0 +0 x_0_18_1 +1 x_0_18_2 +1 x_0_18_3 +0 x_0_9_0_sb -1 x_0_9_1_sb +1 x_0_9_2_sb +0 x_0_9_3_sb +0 p0_0_9 -1 p1_0_9 >= -1
+0 x_0_18_0 +1 x_0_18_1 +0 x_0_18_2 -1 x_0_18_3 -1 x_0_9_0_sb +0 x_0_9_1_sb -1 x_0_9_2_sb +0 x_0_9_3_sb +0 p0_0_9 -1 p1_0_9 >= -3
+0 x_0_18_0 +1 x_0_18_1 +1 x_0_18_2 +0 x_0_18_3 +0 x_0_9_0_sb +0 x_0_9_1_sb +1 x_0_9_2_sb -1 x_0_9_3_sb +0 p0_0_9 -1 p1_0_9 >= -1
-1 x_0_18_0 +0 x_0_18_1 -1 x_0_18_2 +0 x_0_18_3 -1 x_0_9_0_sb +0 x_0_9_1_sb +1 x_0_9_2_sb +0 x_0_9_3_sb +0 p0_0_9 -1 p1_0_9 >= -3
+0 x_0_18_0 -1 x_0_18_1 -1 x_0_18_2 +0 x_0_18_3 +0 x_0_9_0_sb +1 x_0_9_1_sb +0 x_0_9_2_sb +1 x_0_9_3_sb +0 p0_0_9 -1 p1_0_9 >= -2
+0 x_0_18_0 -1 x_0_18_1 +0 x_0_18_2 +0 x_0_18_3 +1 x_0_9_0_sb +1 x_0_9_1_sb +0 x_0_9_2_sb +1 x_0_9_3_sb +0 p0_0_9 +1 p1_0_9 >= 0
-1 x_0_18_0 -1 x_0_18_1 +0 x_0_18_2 +1 x_0_18_3 +0 x_0_9_0_sb +1 x_0_9_1_sb +0 x_0_9_2_sb +1 x_0_9_3_sb +0 p0_0_9 -1 p1_0_9 >= -2
+0 x_0_18_0 -1 x_0_18_1 +0 x_0_18_2 +0 x_0_18_3 +1 x_0_9_0_sb +0 x_0_9_1_sb +1 x_0_9_2_sb +1 x_0_9_3_sb +0 p0_0_9 -1 p1_0_9 >= -1
-1 x_0_18_0 +0 x_0_18_1 -1 x_0_18_2 +0 x_0_18_3 +1 x_0_9_0_sb +1 x_0_9_1_sb +0 x_0_9_2_sb +0 x_0_9_3_sb +0 p0_0_9 -1 p1_0_9 >= -2
+0 x_0_18_0 +1 x_0_18_1 -1 x_0_18_2 -1 x_0_18_3 +0 x_0_9_0_sb +0 x_0_9_1_sb +0 x_0_9_2_sb +1 x_0_9_3_sb +0 p0_0_9 -1 p1_0_9 >= -2
-1 x_0_18_0 -1 x_0_18_1 +0 x_0_18_2 -1 x_0_18_3 +0 x_0_9_0_sb +1 x_0_9_1_sb +0 x_0_9_2_sb -1 x_0_9_3_sb +0 p0_0_9 -1 p1_0_9 >= -4
-1 x_0_18_0 +1 x_0_18_1 +0 x_0_18_2 +1 x_0_18_3 +0 x_0_9_0_sb +1 x_0_9_1_sb +0 x_0_9_2_sb +1 x_0_9_3_sb +0 p0_0_9 +1 p1_0_9 >= 0
+0 x_0_18_0 +0 x_0_18_1 +0 x_0_18_2 +0 x_0_18_3 +1 x_0_9_0_sb -1 x_0_9_1_sb +0 x_0_9_2_sb -1 x_0_9_3_sb +0 p0_0_9 +1 p1_0_9 >= -1
+1 x_0_18_0 +0 x_0_18_1 +1 x_0_18_2 +0 x_0_18_3 +1 x_0_9_0_sb -1 x_0_9_1_sb +0 x_0_9_2_sb +0 x_0_9_3_sb +0 p0_0_9 -1 p1_0_9 >= -1
+0 x_0_18_0 +1 x_0_18_1 +0 x_0_18_2 +1 x_0_18_3 +0 x_0_9_0_sb -1 x_0_9_1_sb -1 x_0_9_2_sb +0 x_0_9_3_sb +0 p0_0_9 -1 p1_0_9 >= -2
+1 x_0_18_0 -1 x_0_18_1 +0 x_0_18_2 -1 x_0_18_3 +0 x_0_9_0_sb +0 x_0_9_1_sb +1 x_0_9_2_sb +0 x_0_9_3_sb +0 p0_0_9 +0 p1_0_9 >= -1
+1 x_0_18_0 -1 x_0_18_1 -1 x_0_18_2 +0 x_0_18_3 +0 x_0_9_0_sb +0 x_0_9_1_sb +1 x_0_9_2_sb -1 x_0_9_3_sb +0 p0_0_9 -1 p1_0_9 >= -3
+1 x_0_18_0 -1 x_0_18_1 +0 x_0_18_2 -1 x_0_18_3 +0 x_0_9_0_sb +0 x_0_9_1_sb +0 x_0_9_2_sb +0 x_0_9_3_sb +0 p0_0_9 +1 p1_0_9 >= -1
+1 x_0_18_0 +0 x_0_18_1 +0 x_0_18_2 +0 x_0_18_3 -1 x_0_9_0_sb +1 x_0_9_1_sb +0 x_0_9_2_sb -1 x_0_9_3_sb +0 p0_0_9 +1 p1_0_9 >= -1
+1 x_0_18_0 +0 x_0_18_1 +0 x_0_18_2 +0 x_0_18_3 -1 x_0_9_0_sb -1 x_0_9_1_sb +0 x_0_9_2_sb +1 x_0_9_3_sb +0 p0_0_9 +1 p1_0_9 >= -1
-1 x_0_18_0 -1 x_0_18_1 +0 x_0_18_2 +1 x_0_18_3 +1 x_0_9_0_sb +0 x_0_9_1_sb +0 x_0_9_2_sb +0 x_0_9_3_sb +0 p0_0_9 +1 p1_0_9 >= -1
-1 x_0_18_0 +1 x_0_18_1 +0 x_0_18_2 -1 x_0_18_3 +1 x_0_9_0_sb +0 x_0_9_1_sb +0 x_0_9_2_sb +0 x_0_9_3_sb +0 p0_0_9 +1 p1_0_9 >= -1
+0 x_0_18_0 -1 x_0_18_1 +0 x_0_18_2 -1 x_0_18_3 +0 x_0_9_0_sb -1 x_0_9_1_sb +0 x_0_9_2_sb -1 x_0_9_3_sb +0 p0_0_9 +1 p1_0_9 >= -3
+1 x_0_18_0 +1 x_0_18_1 +0 x_0_18_2 +1 x_0_18_3 +0 x_0_9_0_sb +0 x_0_9_1_sb -1 x_0_9_2_sb +0 x_0_9_3_sb +0 p0_0_9 +0 p1_0_9 >= 0
-1 x_0_18_0 +0 x_0_18_1 +1 x_0_18_2 -1 x_0_18_3 +0 x_0_9_0_sb -1 x_0_9_1_sb -1 x_0_9_2_sb +0 x_0_9_3_sb +0 p0_0_9 -1 p1_0_9 >= -4
+1 x_0_18_0 +1 x_0_18_1 +0 x_0_18_2 -1 x_0_18_3 +1 x_0_9_0_sb +1 x_0_9_1_sb +0 x_0_9_2_sb -1 x_0_9_3_sb +0 p0_0_9 -1 p1_0_9 >= -2
+1 x_0_18_0 +0 x_0_18_1 +1 x_0_18_2 +0 x_0_18_3 +0 x_0_9_0_sb +1 x_0_9_1_sb +1 x_0_9_2_sb +1 x_0_9_3_sb +0 p0_0_9 -1 p1_0_9 >= 0
+1 x_0_18_0 +0 x_0_18_1 -1 x_0_18_2 -1 x_0_18_3 -1 x_0_9_0_sb -1 x_0_9_1_sb +0 x_0_9_2_sb -1 x_0_9_3_sb +0 p0_0_9 -1 p1_0_9 >= -5
+0 x_0_18_0 +0 x_0_18_1 +1 x_0_18_2 +1 x_0_18_3 -1 x_0_9_0_sb +0 x_0_9_1_sb -1 x_0_9_2_sb +0 x_0_9_3_sb +0 p0_0_9 -1 p1_0_9 >= -2
+0 x_0_18_0 +0 x_0_18_1 +1 x_0_18_2 +0 x_0_18_3 +1 x_0_9_0_sb -1 x_0_9_1_sb +0 x_0_9_2_sb -1 x_0_9_3_sb +0 p0_0_9 +0 p1_0_9 >= -1
+0 x_0_18_0 -1 x_0_18_1 +0 x_0_18_2 -1 x_0_18_3 +0 x_0_9_0_sb +1 x_0_9_1_sb +0 x_0_9_2_sb +1 x_0_9_3_sb +0 p0_0_9 +1 p1_0_9 >= -1
+0 x_0_18_0 +1 x_0_18_1 +0 x_0_18_2 +1 x_0_18_3 +0 x_0_9_0_sb -1 x_0_9_1_sb +0 x_0_9_2_sb -1 x_0_9_3_sb +0 p0_0_9 +1 p1_0_9 >= -1
+1 x_0_18_0 -1 x_0_18_1 +1 x_0_18_2 -1 x_0_18_3 +1 x_0_9_0_sb +0 x_0_9_1_sb +0 x_0_9_2_sb +0 x_0_9_3_sb +0 p0_0_9 +0 p1_0_9 >= -1
+1 x_0_18_0 +0 x_0_18_1 +0 x_0_18_2 +0 x_0_18_3 +1 x_0_9_0_sb -1 x_0_9_1_sb +1 x_0_9_2_sb -1 x_0_9_3_sb +0 p0_0_9 +0 p1_0_9 >= -1
+0 x_0_18_0 -1 x_0_18_1 +0 x_0_18_2 -1 x_0_18_3 +1 x_0_9_0_sb -1 x_0_9_1_sb -1 x_0_9_2_sb -1 x_0_9_3_sb +0 p0_0_9 +0 p1_0_9 >= -4
+1 x_0_18_0 +0 x_0_18_1 +0 x_0_18_2 +1 x_0_18_3 +0 x_0_9_0_sb -1 x_0_9_1_sb -1 x_0_9_2_sb +1 x_0_9_3_sb +0 p0_0_9 -1 p1_0_9 >= -2
+0 x_0_18_0 +0 x_0_18_1 -1 x_0_18_2 +1 x_0_18_3 -1 x_0_9_0_sb +1 x_0_9_1_sb +0 x_0_9_2_sb -1 x_0_9_3_sb +0 p0_0_9 -1 p1_0_9 >= -3
+0 x_0_18_0 +1 x_0_18_1 +0 x_0_18_2 +1 x_0_18_3 -1 x_0_9_0_sb -1 x_0_9_1_sb +0 x_0_9_2_sb +1 x_0_9_3_sb +0 p0_0_9 -1 p1_0_9 >= -2
-1 x_0_18_0 +1 x_0_18_1 +0 x_0_18_2 -1 x_0_18_3 +0 x_0_9_0_sb +0 x_0_9_1_sb -1 x_0_9_2_sb +1 x_0_9_3_sb +0 p0_0_9 -1 p1_0_9 >= -3
-1 x_0_18_0 +0 x_0_18_1 +0 x_0_18_2 +0 x_0_18_3 -1 x_0_9_0_sb +1 x_0_9_1_sb +0 x_0_9_2_sb -1 x_0_9_3_sb +0 p0_0_9 -1 p1_0_9 >= -3
+0 x_0_18_0 +0 x_0_18_1 -1 x_0_18_2 +0 x_0_18_3 +1 x_0_9_0_sb +1 x_0_9_1_sb +0 x_0_9_2_sb +1 x_0_9_3_sb +0 p0_0_9 +0 p1_0_9 >= 0
+0 x_0_20_0 +0 x_0_20_1 +0 x_0_20_2 +0 x_0_20_3 +0 x_0_10_0_sb +0 x_0_10_1_sb +0 x_0_10_2_sb +0 x_0_10_3_sb -1 p0_0_10 -1 p1_0_10 >= -1
+0 x_0_20_0 +0 x_0_20_1 +0 x_0_20_2 +0 x_0_20_3 +0 x_0_10_0_sb +0 x_0_10_1_sb +0 x_0_10_2_sb -1 x_0_10_3_sb +1 p0_0_10 +1 p1_0_10 >= 0
+0 x_0_20_0 +0 x_0_20_1 +0 x_0_20_2 +0 x_0_20_3 +0 x_0_10_0_sb -1 x_0_10_1_sb +0 x_0_10_2_sb +0 x_0_10_3_sb +1 p0_0_10 +1 p1_0_10 >= 0
+0 x_0_20_0 +0 x_0_20_1 +0 x_0_20_2 +0 x_0_20_3 -1 x_0_10_0_sb +0 x_0_10_1_sb +0 x_0_10_2_sb +0 x_0_10_3_sb +1 p0_0_10 +1 p1_0_10 >= 0
+0 x_0_20_0 +0 x_0_20_1 +0 x_0_20_2 +0 x_0_20_3 +1 x_0_10_0_sb +1 x_0_10_1_sb +1 x_0_10_2_sb +1 x_0_10_3_sb +0 p0_0_10 -1 p1_0_10 >= 0
+0 x_0_20_0 +0 x_0_20_1 +0 x_0_20_2 -1 x_0_20_3 +1 x_0_10_0_sb +1 x_0_10_1_sb +0 x_0_10_2_sb +1 x_0_10_3_sb +0 p0_0_10 +1 p1_0_10 >= 0
-1 x_0_20_0 +0 x_0_20_1 -1 x_0_20_2 +0 x_0_20_3 +1 x_0_10_0_sb +0 x_0_10_1_sb +0 x_0_10_2_sb +1 x_0_10_3_sb +0 p0_0_10 -1 p1_0_10 >= -2
+1 x_0_20_0 +0 x_0_20_1 +1 x_0_20_2 +0 x_0_20_3 +1 x_0_10_0_sb +0 x_0_10_1_sb +1 x_0_10_2_sb +0 x_0_10_3_sb +0 p0_0_10 -1 p1_0_10 >= 0
+0 x_0_20_0 +0 x_0_20_1 +0 x_0_20_2 +1 x_0_20_3 +0 x_0_10_0_sb +1 x_0_10_1_sb -1 x_0_10_2_sb -1 x_0_10_3_sb +0 p0_0_10 -1 p1_0_10 >= -2
-1 x_0_20_0 +0 x_0_20_1 +0 x_0_20_2 -1 x_0_20_3 -1 x_0_10_0_sb +0 x_0_10_1_sb +0 x_0_10_2_sb +1 x_0_10_3_sb +0 p0_0_10 -1 p1_0_10 >= -3
+0 x_0_20_0 +0 x_0_20_1 +0 x_0_20_2 +1 x_0_20_3 -1 x_0_10_0_sb -1 x_0_10_1_sb -1 x_0_10_2_sb +0 x_0_10_3_sb +0 p0_0_10 -1 p1_0_10 >= -3
+1 x_0_20_0 +1 x_0_20_1 +0 x_0_20_2 +1 x_0_20_3 +0 x_0_10_0_sb +0 x_0_10_1_sb +0 x_0_10_2_sb +0 x_0_10_3_sb -1 p0_0_10 +0 p1_0_10 >= 0
+0 x_0_20_0 +0 x_0_20_1 +1 x_0_20_2 +1 x_0_20_3 +0 x_0_10_0_sb -1 x_0_10_1_sb +1 x_0_10_2_sb +0 x_0_10_3_sb +0 p0_0_10 -1 p1_0_10 >= -1
+0 x_0_20_0 +1 x_0_20_1 +0 x_0_20_2 -1 x_0_20_3 -1 x_0_10_0_sb +0 x_0_10_1_sb -1 x_0_10_2_sb +0 x_0_10_3_sb +0 p0_0_10 -1 p1_0_10 >= -3
+0 x_0_20_0 +1 x_0_20_1 +1 x_0_20_2 +0 x_0_20_3 +0 x_0_10_0_sb +0 x_0_10_1_sb +1 x_0_10_2_sb -1 x_0_10_3_sb +0 p0_0_10 -1 p1_0_10 >= -1
-1 x_0_20_0 +0 x_0_20_1 -1 x_0_20_2 +0 x_0_20_3 -1 x_0_10_0_sb +0 x_0_10_1_sb +1 x_0_10_2_sb +0 x_0_10_3_sb +0 p0_0_10 -1 p1_0_10 >= -3
+0 x_0_20_0 -1 x_0_20_1 -1 x_0_20_2 +0 x_0_20_3 +0 x_0_10_0_sb +1 x_0_10_1_sb +0 x_0_10_2_sb +1 x_0_10_3_sb +0 p0_0_10 -1 p1_0_10 >= -2
+0 x_0_20_0 -1 x_0_20_1 +0 x_0_20_2 +0 x_0_20_3 +1 x_0_10_0_sb +1 x_0_10_1_sb +0 x_0_10_2_sb +1 x_0_10_3_sb +0 p0_0_10 +1 p1_0_10 >= 0
-1 x_0_20_0 -1 x_0_20_1 +0 x_0_20_2 +1 x_0_20_3 +0 x_0_10_0_sb +1 x_0_10_1_sb +0 x_0_10_2_sb +1 x_0_10_3_sb +0 p0_0_10 -1 p1_0_10 >= -2
+0 x_0_20_0 -1 x_0_20_1 +0 x_0_20_2 +0 x_0_20_3 +1 x_0_10_0_sb +0 x_0_10_1_sb +1 x_0_10_2_sb +1 x_0_10_3_sb +0 p0_0_10 -1 p1_0_10 >= -1
-1 x_0_20_0 +0 x_0_20_1 -1 x_0_20_2 +0 x_0_20_3 +1 x_0_10_0_sb +1 x_0_10_1_sb +0 x_0_10_2_sb +0 x_0_10_3_sb +0 p0_0_10 -1 p1_0_10 >= -2
+0 x_0_20_0 +1 x_0_20_1 -1 x_0_20_2 -1 x_0_20_3 +0 x_0_10_0_sb +0 x_0_10_1_sb +0 x_0_10_2_sb +1 x_0_10_3_sb +0 p0_0_10 -1 p1_0_10 >= -2
-1 x_0_20_0 -1 x_0_20_1 +0 x_0_20_2 -1 x_0_20_3 +0 x_0_10_0_sb +1 x_0_10_1_sb +0 x_0_10_2_sb -1 x_0_10_3_sb +0 p0_0_10 -1 p1_0_10 >= -4
-1 x_0_20_0 +1 x_0_20_1 +0 x_0_20_2 +1 x_0_20_3 +0 x_0_10_0_sb +1 x_0_10_1_sb +0 x_0_10_2_sb +1 x_0_10_3_sb +0 p0_0_10 +1 p1_0_10 >= 0
+0 x_0_20_0 +0 x_0_20_1 +0 x_0_20_2 +0 x_0_20_3 +1 x_0_10_0_sb -1 x_0_10_1_sb +0 x_0_10_2_sb -1 x_0_10_3_sb +0 p0_0_10 +1 p1_0_10 >= -1
+1 x_0_20_0 +0 x_0_20_1 +1 x_0_20_2 +0 x_0_20_3 +1 x_0_10_0_sb -1 x_0_10_1_sb +0 x_0_10_2_sb +0 x_0_10_3_sb +0 p0_0_10 -1 p1_0_10 >= -1
+0 x_0_20_0 +1 x_0_20_1 +0 x_0_20_2 +1 x_0_20_3 +0 x_0_10_0_sb -1 x_0_10_1_sb -1 x_0_10_2_sb +0 x_0_10_3_sb +0 p0_0_10 -1 p1_0_10 >= -2
+1 x_0_20_0 -1 x_0_20_1 +0 x_0_20_2 -1 x_0_20_3 +0 x_0_10_0_sb +0 x_0_10_1_sb +1 x_0_10_2_sb +0 x_0_10_3_sb +0 p0_0_10 +0 p1_0_10 >= -1
+1 x_0_20_0 -1 x_0_20_1 -1 x_0_20_2 +0 x_0_20_3 +0 x_0_10_0_sb +0 x_0_10_1_sb +1 x_0_10_2_sb -1 x_0_10_3_sb +0 p0_0_10 -1 p1_0_10 >= -3
+1 x_0_20_0 -1 x_0_20_1 +0 x_0_20_2 -1 x_0_20_3 +0 x_0_10_0_sb +0 x_0_10_1_sb +0 x_0_10_2_sb +0 x_0_10_3_sb +0 p0_0_10 +1 p1_0_10 >= -1
+1 x_0_20_0 +0 x_0_20_1 +0 x_0_20_2 +0 x_0_20_3 -1 x_0_10_0_sb +1 x_0_10_1_sb +0 x_0_10_2_sb -1 x_0_10_3_sb +0 p0_0_10 +1 p1_0_10 >= -1
+1 x_0_20_0 +0 x_0_20_1 +0 x_0_20_2 +0 x_0_20_3 -1 x_0_10_0_sb -1 x_0_10_1_sb +0 x_0_10_2_sb +1 x_0_10_3_sb +0 p0_0_10 +1 p1_0_10 >= -1
-1 x_0_20_0 -1 x_0_20_1 +0 x_0_20_2 +1 x_0_20_3 +1 x_0_10_0_sb +0 x_0_10_1_sb +0 x_0_10_2_sb +0 x_0_10_3_sb +0 p0_0_10 +1 p1_0_10 >= -1
-1 x_0_20_0 +1 x_0_20_1 +0 x_0_20_2 -1 x_0_20_3 +1 x_0_10_0_sb +0 x_0_10_1_sb +0 x_0_10_2_sb +0 x_0_10_3_sb +0 p0_0_10 +1 p1_0_10 >= -1
+0 x_0_20_0 -1 x_0_20_1 +0 x_0_20_2 -1 x_0_20_3 +0 x_0_10_0_sb -1 x_0_10_1_sb +0 x_0_10_2_sb -1 x_0_10_3_sb +0 p0_0_10 +1 p1_0_10 >= -3
+1 x_0_20_0 +1 x_0_20_1 +0 x_0_20_2 +1 x_0_20_3 +0 x_0_10_0_sb +0 x_0_10_1_sb -1 x_0_10_2_sb +0 x_0_10_3_sb +0 p0_0_10 +0 p1_0_10 >= 0
-1 x_0_20_0 +0 x_0_20_1 +1 x_0_20_2 -1 x_0_20_3 +0 x_0_10_0_sb -1 x_0_10_1_sb -1 x_0_10_2_sb +0 x_0_10_3_sb +0 p0_0_10 -1 p1_0_10 >= -4
+1 x_0_20_0 +1 x_0_20_1 +0 x_0_20_2 -1 x_0_20_3 +1 x_0_10_0_sb +1 x_0_10_1_sb +0 x_0_10_2_sb -1 x_0_10_3_sb +0 p0_0_10 -1 p1_0_10 >= -2
+1 x_0_20_0 +0 x_0_20_1 +1 x_0_20_2 +0 x_0_20_3 +0 x_0_10_0_sb +1 x_0_10_1_sb +1 x_0_10_2_sb +1 x_0_10_3_sb +0 p0_0_10 -1 p1_0_10 >= 0
+1 x_0_20_0 +0 x_0_20_1 -1 x_0_20_2 -1 x_0_20_3 -1 x_0_10_0_sb -1 x_0_10_1_sb +0 x_0_10_2_sb -1 x_0_10_3_sb +0 p0_0_10 -1 p1_0_10 >= -5
+0 x_0_20_0 +0 x_0_20_1 +1 x_0_20_2 +1 x_0_20_3 -1 x_0_10_0_sb +0 x_0_10_1_sb -1 x_0_10_2_sb +0 x_0_10_3_sb +0 p0_0_10 -1 p1_0_10 >= -2
+0 x_0_20_0 +0 x_0_20_1 +1 x_0_20_2 +0 x_0_20_3 +1 x_0_10_0_sb -1 x_0_10_1_sb +0 x_0_10_2_sb -1 x_0_10_3_sb +0 p0_0_10 +0 p1_0_10 >= -1
+0 x_0_20_0 -1 x_0_20_1 +0 x_0_20_2 -1 x_0_20_3 +0 x_0_10_0_sb +1 x_0_10_1_sb +0 x_0_10_2_sb +1 x_0_10_3_sb +0 p0_0_10 +1 p1_0_10 >= -1
+0 x_0_20_0 +1 x_0_20_1 +0 x_0_20_2 +1 x_0_20_3 +0 x_0_10_0_sb -1 x_0_10_1_sb +0 x_0_10_2_sb -1 x_0_10_3_sb +0 p0_0_10 +1 p1_0_10 >= -1
+1 x_0_20_0 -1 x_0_20_1 +1 x_0_20_2 -1 x_0_20_3 +1 x_0_10_0_sb +0 x_0_10_1_sb +0 x_0_10_2_sb +0 x_0_10_3_sb +0 p0_0_10 +0 p1_0_10 >= -1
+1 x_0_20_0 +0 x_0_20_1 +0 x_0_20_2 +0 x_0_20_3 +1 x_0_10_0_sb -1 x_0_10_1_sb +1 x_0_10_2_sb -1 x_0_10_3_sb +0 p0_0_10 +0 p1_0_10 >= -1
+0 x_0_20_0 -1 x_0_20_1 +0 x_0_20_2 -1 x_0_20_3 +1 x_0_10_0_sb -1 x_0_10_1_sb -1 x_0_10_2_sb -1 x_0_10_3_sb +0 p0_0_10 +0 p1_0_10 >= -4
+1 x_0_20_0 +0 x_0_20_1 +0 x_0_20_2 +1 x_0_20_3 +0 x_0_10_0_sb -1 x_0_10_1_sb -1 x_0_10_2_sb +1 x_0_10_3_sb +0 p0_0_10 -1 p1_0_10 >= -2
+0 x_0_20_0 +0 x_0_20_1 -1 x_0_20_2 +1 x_0_20_3 -1 x_0_10_0_sb +1 x_0_10_1_sb +0 x_0_10_2_sb -1 x_0_10_3_sb +0 p0_0_10 -1 p1_0_10 >= -3
+0 x_0_20_0 +1 x_0_20_1 +0 x_0_20_2 +1 x_0_20_3 -1 x_0_10_0_sb -1 x_0_10_1_sb +0 x_0_10_2_sb +1 x_0_10_3_sb +0 p0_0_10 -1 p1_0_10 >= -2
-1 x_0_20_0 +1 x_0_20_1 +0 x_0_20_2 -1 x_0_20_3 +0 x_0_10_0_sb +0 x_0_10_1_sb -1 x_0_10_2_sb +1 x_0_10_3_sb +0 p0_0_10 -1 p1_0_10 >= -3
-1 x_0_20_0 +0 x_0_20_1 +0 x_0_20_2 +0 x_0_20_3 -1 x_0_10_0_sb +1 x_0_10_1_sb +0 x_0_10_2_sb -1 x_0_10_3_sb +0 p0_0_10 -1 p1_0_10 >= -3
+0 x_0_20_0 +0 x_0_20_1 -1 x_0_20_2 +0 x_0_20_3 +1 x_0_10_0_sb +1 x_0_10_1_sb +0 x_0_10_2_sb +1 x_0_10_3_sb +0 p0_0_10 +0 p1_0_10 >= 0
+0 x_0_22_0 +0 x_0_22_1 +0 x_0_22_2 +0 x_0_22_3 +0 x_0_11_0_sb +0 x_0_11_1_sb +0 x_0_11_2_sb +0 x_0_11_3_sb -1 p0_0_11 -1 p1_0_11 >= -1
+0 x_0_22_0 +0 x_0_22_1 +0 x_0_22_2 +0 x_0_22_3 +0 x_0_11_0_sb +0 x_0_11_1_sb +0 x_0_11_2_sb -1 x_0_11_3_sb +1 p0_0_11 +1 p1_0_11 >= 0
+0 x_0_22_0 +0 x_0_22_1 +0 x_0_22_2 +0 x_0_22_3 +0 x_0_11_0_sb -1 x_0_11_1_sb +0 x_0_11_2_sb +0 x_0_11_3_sb +1 p0_0_11 +1 p1_0_11 >= 0
+0 x_0_22_0 +0 x_0_22_1 +0 x_0_22_2 +0 x_0_22_3 -1 x_0_11_0_sb +0 x_0_11_1_sb +0 x_0_11_2_sb +0 x_0_11_3_sb +1 p0_0_11 +1 p1_0_11 >= 0
+0 x_0_22_0 +0 x_0_22_1 +0 x_0_22_2 +0 x_0_22_3 +1 x_0_11_0_sb +1 x_0_11_1_sb +1 x_0_11_2_sb +1 x_0_11_3_sb +0 p0_0_11 -1 p1_0_11 >= 0
+0 x_0_22_0 +0 x_0_22_1 +0 x_0_22_2 -1 x_0_22_3 +1 x_0_11_0_sb +1 x_0_11_1_sb +0 x_0_11_2_sb +1 x_0_11_3_sb +0 p0_0_11 +1 p1_0_11 >= 0
-1 x_0_22_0 +0 x_0_22_1 -1 x_0_22_2 +0 x_0_22_3 +1 x_0_11_0_sb +0 x_0_11_1_sb +0 x_0_11_2_sb +1 x_0_11_3_sb +0 p0_0_11 -1 p1_0_11 >= -2
+1 x_0_22_0 +0 x_0_22_1 +1 x_0_22_2 +0 x_0_22_3 +1 x_0_11_0_sb +0 x_0_11_1_sb +1 x_0_11_2_sb +0 x_0_11_3_sb +0 p0_0_11 -1 p1_0_11 >= 0
+0 x_0_22_0 +0 x_0_22_1 +0 x_0_22_2 +1 x_0_22_3 +0 x_0_11_0_sb +1 x_0_11_1_sb -1 x_0_11_2_sb -1 x_0_11_3_sb +0 p0_0_11 -1 p1_0_11 >= -2
-1 x_0_22_0 +0 x_0_22_1 +0 x_0_22_2 -1 x_0_22_3 -1 x_0_11_0_sb +0 x_0_11_1_sb +0 x_0_11_2_sb +1 x_0_11_3_sb +0 p0_0_11 -1 p1_0_11 >= -3
+0 x_0_22_0 +0 x_0_22_1 +0 x_0_22_2 +1 x_0_22_3 -1 x_0_11_0_sb -1 x_0_11_1_sb -1 x_0_11_2_sb +0 x_0_11_3_sb +0 p0_0_11 -1 p1_0_11 >= -3
+1 x_0_22_0 +1 x_0_22_1 +0 x_0_22_2 +1 x_0_22_3 +0 x_0_11_0_sb +0 x_0_11_1_sb +0 x_0_11_2_sb +0 x_0_11_3_sb -1 p0_0_11 +0 p1_0_11 >= 0
+0 x_0_22_0 +0 x_0_22_1 +1 x_0_22_2 +1 x_0_22_3 +0 x_0_11_0_sb -1 x_0_11_1_sb +1 x_0_11_2_sb +0 x_0_11_3_sb +0 p0_0_11 -1 p1_0_11 >= -1
+0 x_0_22_0 +1 x_0_22_1 +0 x_0_22_2 -1 x_0_22_3 -1 x_0_11_0_sb +0 x_0_11_1_sb -1 x_0_11_2_sb +0 x_0_11_3_sb +0 p0_0_11 -1 p1_0_11 >= -3
+0 x_0_22_0 +1 x_0_22_1 +1 x_0_22_2 +0 x_0_22_3 +0 x_0_11_0_sb +0 x_0_11_1_sb +1 x_0_11_2_sb -1 x_0_11_3_sb +0 p0_0_11 -1 p1_0_11 >= -1
-1 x_0_22_0 +0 x_0_22_1 -1 x_0_22_2 +0 x_0_22_3 -1 x_0_11_0_sb +0 x_0_11_1_sb +1 x_0_11_2_sb +0 x_0_11_3_sb +0 p0_0_11 -1 p1_0_11 >= -3
+0 x_0_22_0 -1 x_0_22_1 -1 x_0_22_2 +0 x_0_22_3 +0 x_0_11_0_sb +1 x_0_11_1_sb +0 x_0_11_2_sb +1 x_0_11_3_sb +0 p0_0_11 -1 p1_0_11 >= -2
+0 x_0_22_0 -1 x_0_22_1 +0 x_0_22_2 +0 x_0_22_3 +1 x_0_11_0_sb +1 x_0_11_1_sb +0 x_0_11_2_sb +1 x_0_11_3_sb +0 p0_0_11 +1 p1_0_11 >= 0
-1 x_0_22_0 -1 x_0_22_1 +0 x_0_22_2 +1 x_0_22_3 +0 x_0_11_0_sb +1 x_0_11_1_sb +0 x_0_11_2_sb +1 x_0_11_3_sb +0 p0_0_11 -1 p1_0_11 >= -2
+0 x_0_22_0 -1 x_0_22_1 +0 x_0_22_2 +0 x_0_22_3 +1 x_0_11_0_sb +0 x_0_11_1_sb +1 x_0_11_2_sb +1 x_0_11_3_sb +0 p0_0_11 -1 p1_0_11 >= -1
-1 x_0_22_0 +0 x_0_22_1 -1 x_0_22_2 +0 x_0_22_3 +1 x_0_11_0_sb +1 x_0_11_1_sb +0 x_0_11_2_sb +0 x_0_11_3_sb +0 p0_0_11 -1 p1_0_11 >= -2
+0 x_0_22_0 +1 x_0_22_1 -1 x_0_22_2 -1 x_0_22_3 +0 x_0_11_0_sb +0 x_0_11_1_sb +0 x_0_11_2_sb +1 x_0_11_3_sb +0 p0_0_11 -1 p1_0_11 >= -2
-1 x_0_22_0 -1 x_0_22_1 +0 x_0_22_2 -1 x_0_22_3 +0 x_0_11_0_sb +1 x_0_11_1_sb +0 x_0_11_2_sb -1 x_0_11_3_sb +0 p0_0_11 -1 p1_0_11 >= -4
-1 x_0_22_0 +1 x_0_22_1 +0 x_0_22_2 +1 x_0_22_3 +0 x_0_11_0_sb +1 x_0_11_1_sb +0 x_0_11_2_sb +1 x_0_11_3_sb +0 p0_0_11 +1 p1_0_11 >= 0
+0 x_0_22_0 +0 x_0_22_1 +0 x_0_22_2 +0 x_0_22_3 +1 x_0_11_0_sb -1 x_0_11_1_sb +0 x_0_11_2_sb -1 x_0_11_3_sb +0 p0_0_11 +1 p1_0_11 >= -1
+1 x_0_22_0 +0 x_0_22_1 +1 x_0_22_2 +0 x_0_22_3 +1 x_0_11_0_sb -1 x_0_11_1_sb +0 x_0_11_2_sb +0 x_0_11_3_sb +0 p0_0_11 -1 p1_0_11 >= -1
+0 x_0_22_0 +1 x_0_22_1 +0 x_0_22_2 +1 x_0_22_3 +0 x_0_11_0_sb -1 x_0_11_1_sb -1 x_0_11_2_sb +0 x_0_11_3_sb +0 p0_0_11 -1 p1_0_11 >= -2
+1 x_0_22_0 -1 x_0_22_1 +0 x_0_22_2 -1 x_0_22_3 +0 x_0_11_0_sb +0 x_0_11_1_sb +1 x_0_11_2_sb +0 x_0_11_3_sb +0 p0_0_11 +0 p1_0_11 >= -1
+1 x_0_22_0 -1 x_0_22_1 -1 x_0_22_2 +0 x_0_22_3 +0 x_0_11_0_sb +0 x_0_11_1_sb +1 x_0_11_2_sb -1 x_0_11_3_sb +0 p0_0_11 -1 p1_0_11 >= -3
+1 x_0_22_0 -1 x_0_22_1 +0 x_0_22_2 -1 x_0_22_3 +0 x_0_11_0_sb +0 x_0_11_1_sb +0 x_0_11_2_sb +0 x_0_11_3_sb +0 p0_0_11 +1 p1_0_11 >= -1
+1 x_0_22_0 +0 x_0_22_1 +0 x_0_22_2 +0 x_0_22_3 -1 x_0_11_0_sb +1 x_0_11_1_sb +0 x_0_11_2_sb -1 x_0_11_3_sb +0 p0_0_11 +1 p1_0_11 >= -1
+1 x_0_22_0 +0 x_0_22_1 +0 x_0_22_2 +0 x_0_22_3 -1 x_0_11_0_sb -1 x_0_11_1_sb +0 x_0_11_2_sb +1 x_0_11_3_sb +0 p0_0_11 +1 p1_0_11 >= -1
-1 x_0_22_0 -1 x_0_22_1 +0 x_0_22_2 +1 x_0_22_3 +1 x_0_11_0_sb +0 x_0_11_1_sb +0 x_0_11_2_sb +0 x_0_11_3_sb +0 p0_0_11 +1 p1_0_11 >= -1
-1 x_0_22_0 +1 x_0_22_1 +0 x_0_22_2 -1 x_0_22_3 +1 x_0_11_0_sb +0 x_0_11_1_sb +0 x_0_11_2_sb +0 x_0_11_3_sb +0 p0_0_11 +1 p1_0_11 >= -1
+0 x_0_22_0 -1 x_0_22_1 +0 x_0_22_2 -1 x_0_22_3 +0 x_0_11_0_sb -1 x_0_11_1_sb +0 x_0_11_2_sb -1 x_0_11_3_sb +0 p0_0_11 +1 p1_0_11 >= -3
+1 x_0_22_0 +1 x_0_22_1 +0 x_0_22_2 +1 x_0_22_3 +0 x_0_11_0_sb +0 x_0_11_1_sb -1 x_0_11_2_sb +0 x_0_11_3_sb +0 p0_0_11 +0 p1_0_11 >= 0
-1 x_0_22_0 +0 x_0_22_1 +1 x_0_22_2 -1 x_0_22_3 +0 x_0_11_0_sb -1 x_0_11_1_sb -1 x_0_11_2_sb +0 x_0_11_3_sb +0 p0_0_11 -1 p1_0_11 >= -4
+1 x_0_22_0 +1 x_0_22_1 +0 x_0_22_2 -1 x_0_22_3 +1 x_0_11_0_sb +1 x_0_11_1_sb +0 x_0_11_2_sb -1 x_0_11_3_sb +0 p0_0_11 -1 p1_0_11 >= -2
+1 x_0_22_0 +0 x_0_22_1 +1 x_0_22_2 +0 x_0_22_3 +0 x_0_11_0_sb +1 x_0_11_1_sb +1 x_0_11_2_sb +1 x_0_11_3_sb +0 p0_0_11 -1 p1_0_11 >= 0
+1 x_0_22_0 +0 x_0_22_1 -1 x_0_22_2 -1 x_0_22_3 -1 x_0_11_0_sb -1 x_0_11_1_sb +0 x_0_11_2_sb -1 x_0_11_3_sb +0 p0_0_11 -1 p1_0_11 >= -5
+0 x_0_22_0 +0 x_0_22_1 +1 x_0_22_2 +1 x_0_22_3 -1 x_0_11_0_sb +0 x_0_11_1_sb -1 x_0_11_2_sb +0 x_0_11_3_sb +0 p0_0_11 -1 p1_0_11 >= -2
+0 x_0_22_0 +0 x_0_22_1 +1 x_0_22_2 +0 x_0_22_3 +1 x_0_11_0_sb -1 x_0_11_1_sb +0 x_0_11_2_sb -1 x_0_11_3_sb +0 p0_0_11 +0 p1_0_11 >= -1
+0 x_0_22_0 -1 x_0_22_1 +0 x_0_22_2 -1 x_0_22_3 +0 x_0_11_0_sb +1 x_0_11_1_sb +0 x_0_11_2_sb +1 x_0_11_3_sb +0 p0_0_11 +1 p1_0_11 >= -1
+0 x_0_22_0 +1 x_0_22_1 +0 x_0_22_2 +1 x_0_22_3 +0 x_0_11_0_sb -1 x_0_11_1_sb +0 x_0_11_2_sb -1 x_0_11_3_sb +0 p0_0_11 +1 p1_0_11 >= -1
+1 x_0_22_0 -1 x_0_22_1 +1 x_0_22_2 -1 x_0_22_3 +1 x_0_11_0_sb +0 x_0_11_1_sb +0 x_0_11_2_sb +0 x_0_11_3_sb +0 p0_0_11 +0 p1_0_11 >= -1
+1 x_0_22_0 +0 x_0_22_1 +0 x_0_22_2 +0 x_0_22_3 +1 x_0_11_0_sb -1 x_0_11_1_sb +1 x_0_11_2_sb -1 x_0_11_3_sb +0 p0_0_11 +0 p1_0_11 >= -1
+0 x_0_22_0 -1 x_0_22_1 +0 x_0_22_2 -1 x_0_22_3 +1 x_0_11_0_sb -1 x_0_11_1_sb -1 x_0_11_2_sb -1 x_0_11_3_sb +0 p0_0_11 +0 p1_0_11 >= -4
+1 x_0_22_0 +0 x_0_22_1 +0 x_0_22_2 +1 x_0_22_3 +0 x_0_11_0_sb -1 x_0_11_1_sb -1 x_0_11_2_sb +1 x_0_11_3_sb +0 p0_0_11 -1 p1_0_11 >= -2
+0 x_0_22_0 +0 x_0_22_1 -1 x_0_22_2 +1 x_0_22_3 -1 x_0_11_0_sb +1 x_0_11_1_sb +0 x_0_11_2_sb -1 x_0_11_3_sb +0 p0_0_11 -1 p1_0_11 >= -3
+0 x_0_22_0 +1 x_0_22_1 +0 x_0_22_2 +1 x_0_22_3 -1 x_0_11_0_sb -1 x_0_11_1_sb +0 x_0_11_2_sb +1 x_0_11_3_sb +0 p0_0_11 -1 p1_0_11 >= -2
-1 x_0_22_0 +1 x_0_22_1 +0 x_0_22_2 -1 x_0_22_3 +0 x_0_11_0_sb +0 x_0_11_1_sb -1 x_0_11_2_sb +1 x_0_11_3_sb +0 p0_0_11 -1 p1_0_11 >= -3
-1 x_0_22_0 +0 x_0_22_1 +0 x_0_22_2 +0 x_0_22_3 -1 x_0_11_0_sb +1 x_0_11_1_sb +0 x_0_11_2_sb -1 x_0_11_3_sb +0 p0_0_11 -1 p1_0_11 >= -3
+0 x_0_22_0 +0 x_0_22_1 -1 x_0_22_2 +0 x_0_22_3 +1 x_0_11_0_sb +1 x_0_11_1_sb +0 x_0_11_2_sb +1 x_0_11_3_sb +0 p0_0_11 +0 p1_0_11 >= 0
+0 x_0_24_0 +0 x_0_24_1 +0 x_0_24_2 +0 x_0_24_3 +0 x_0_12_0_sb +0 x_0_12_1_sb +0 x_0_12_2_sb +0 x_0_12_3_sb -1 p0_0_12 -1 p1_0_12 >= -1
+0 x_0_24_0 +0 x_0_24_1 +0 x_0_24_2 +0 x_0_24_3 +0 x_0_12_0_sb +0 x_0_12_1_sb +0 x_0_12_2_sb -1 x_0_12_3_sb +1 p0_0_12 +1 p1_0_12 >= 0
+0 x_0_24_0 +0 x_0_24_1 +0 x_0_24_2 +0 x_0_24_3 +0 x_0_12_0_sb -1 x_0_12_1_sb +0 x_0_12_2_sb +0 x_0_12_3_sb +1 p0_0_12 +1 p1_0_12 >= 0
+0 x_0_24_0 +0 x_0_24_1 +0 x_0_24_2 +0 x_0_24_3 -1 x_0_12_0_sb +0 x_0_12_1_sb +0 x_0_12_2_sb +0 x_0_12_3_sb +1 p0_0_12 +1 p1_0_12 >= 0
+0 x_0_24_0 +0 x_0_24_1 +0 x_0_24_2 +0 x_0_24_3 +1 x_0_12_0_sb +1 x_0_12_1_sb +1 x_0_12_2_sb +1 x_0_12_3_sb +0 p0_0_12 -1 p1_0_12 >= 0
+0 x_0_24_0 +0 x_0_24_1 +0 x_0_24_2 -1 x_0_24_3 +1 x_0_12_0_sb +1 x_0_12_1_sb +0 x_0_12_2_sb +1 x_0_12_3_sb +0 p0_0_12 +1 p1_0_12 >= 0
-1 x_0_24_0 +0 x_0_24_1 -1 x_0_24_2 +0 x_0_24_3 +1 x_0_12_0_sb +0 x_0_12_1_sb +0 x_0_12_2_sb +1 x_0_12_3_sb +0 p0_0_12 -1 p1_0_12 >= -2
+1 x_0_24_0 +0 x_0_24_1 +1 x_0_24_2 +0 x_0_24_3 +1 x_0_12_0_sb +0 x_0_12_1_sb +1 x_0_12_2_sb +0 x_0_12_3_sb +0 p0_0_12 -1 p1_0_12 >= 0
+0 x_0_24_0 +0 x_0_24_1 +0 x_0_24_2 +1 x_0_24_3 +0 x_0_12_0_sb +1 x_0_12_1_sb -1 x_0_12_2_sb -1 x_0_12_3_sb +0 p0_0_12 -1 p1_0_12 >= -2
-1 x_0_24_0 +0 x_0_24_1 +0 x_0_24_2 -1 x_0_24_3 -1 x_0_12_0_sb +0 x_0_12_1_sb +0 x_0_12_2_sb +1 x_0_12_3_sb +0 p0_0_12 -1 p1_0_12 >= -3
+0 x_0_24_0 +0 x_0_24_1 +0 x_0_24_2 +1 x_0_24_3 -1 x_0_12_0_sb -1 x_0_12_1_sb -1 x_0_12_2_sb +0 x_0_12_3_sb +0 p0_0_12 -1 p1_0_12 >= -3
+1 x_0_24_0 +1 x_0_24_1 +0 x_0_24_2 +1 x_0_24_3 +0 x_0_12_0_sb +0 x_0_12_1_sb +0 x_0_12_2_sb +0 x_0_12_3_sb -1 p0_0_12 +0 p1_0_12 >= 0
+0 x_0_24_0 +0 x_0_24_1 +1 x_0_24_2 +1 x_0_24_3 +0 x_0_12_0_sb -1 x_0_12_1_sb +1 x_0_12_2_sb +0 x_0_12_3_sb +0 p0_0_12 -1 p1_0_12 >= -1
+0 x_0_24_0 +1 x_0_24_1 +0 x_0_24_2 -1 x_0_24_3 -1 x_0_12_0_sb +0 x_0_12_1_sb -1 x_0_12_2_sb +0 x_0_12_3_sb +0 p0_0_12 -1 p1_0_12 >= -3
+0 x_0_24_0 +1 x_0_24_1 +1 x_0_24_2 +0 x_0_24_3 +0 x_0_12_0_sb +0 x_0_12_1_sb +1 x_0_12_2_sb -1 x_0_12_3_sb +0 p0_0_12 -1 p1_0_12 >= -1
-1 x_0_24_0 +0 x_0_24_1 -1 x_0_24_2 +0 x_0_24_3 -1 x_0_12_0_sb +0 x_0_12_1_sb +1 x_0_12_2_sb +0 x_0_12_3_sb +0 p0_0_12 -1 p1_0_12 >= -3
+0 x_0_24_0 -1 x_0_24_1 -1 x_0_24_2 +0 x_0_24_3 +0 x_0_12_0_sb +1 x_0_12_1_sb +0 x_0_12_2_sb +1 x_0_12_3_sb +0 p0_0_12 -1 p1_0_12 >= -2
+0 x_0_24_0 -1 x_0_24_1 +0 x_0_24_2 +0 x_0_24_3 +1 x_0_12_0_sb +1 x_0_12_1_sb +0 x_0_12_2_sb +1 x_0_12_3_sb +0 p0_0_12 +1 p1_0_12 >= 0
-1 x_0_24_0 -1 x_0_24_1 +0 x_0_24_2 +1 x_0_24_3 +0 x_0_12_0_sb +1 x_0_12_1_sb +0 x_0_12_2_sb +1 x_0_12_3_sb +0 p0_0_12 -1 p1_0_12 >= -2
+0 x_0_24_0 -1 x_0_24_1 +0 x_0_24_2 +0 x_0_24_3 +1 x_0_12_0_sb +0 x_0_12_1_sb +1 x_0_12_2_sb +1 x_0_12_3_sb +0 p0_0_12 -1 p1_0_12 >= -1
-1 x_0_24_0 +0 x_0_24_1 -1 x_0_24_2 +0 x_0_24_3 +1 x_0_12_0_sb +1 x_0_12_1_sb +0 x_0_12_2_sb +0 x_0_12_3_sb +0 p0_0_12 -1 p1_0_12 >= -2
+0 x_0_24_0 +1 x_0_24_1 -1 x_0_24_2 -1 x_0_24_3 +0 x_0_12_0_sb +0 x_0_12_1_sb +0 x_0_12_2_sb +1 x_0_12_3_sb +0 p0_0_12 -1 p1_0_12 >= -2
-1 x_0_24_0 -1 x_0_24_1 +0 x_0_24_2 -1 x_0_24_3 +0 x_0_12_0_sb +1 x_0_12_1_sb +0 x_0_12_2_sb -1 x_0_12_3_sb +0 p0_0_12 -1 p1_0_12 >= -4
-1 x_0_24_0 +1 x_0_24_1 +0 x_0_24_2 +1 x_0_24_3 +0 x_0_12_0_sb +1 x_0_12_1_sb +0 x_0_12_2_sb +1 x_0_12_3_sb +0 p0_0_12 +1 p1_0_12 >= 0
+0 x_0_24_0 +0 x_0_24_1 +0 x_0_24_2 +0 x_0_24_3 +1 x_0_12_0_sb -1 x_0_12_1_sb +0 x_0_12_2_sb -1 x_0_12_3_sb +0 p0_0_12 +1 p1_0_12 >= -1
+1 x_0_24_0 +0 x_0_24_1 +1 x_0_24_2 +0 x_0_24_3 +1 x_0_12_0_sb -1 x_0_12_1_sb +0 x_0_12_2_sb +0 x_0_12_3_sb +0 p0_0_12 -1 p1_0_12 >= -1
+0 x_0_24_0 +1 x_0_24_1 +0 x_0_24_2 +1 x_0_24_3 +0 x_0_12_0_sb -1 x_0_12_1_sb -1 x_0_12_2_sb +0 x_0_12_3_sb +0 p0_0_12 -1 p1_0_12 >= -2
+1 x_0_24_0 -1 x_0_24_1 +0 x_0_24_2 -1 x_0_24_3 +0 x_0_12_0_sb +0 x_0_12_1_sb +1 x_0_12_2_sb +0 x_0_12_3_sb +0 p0_0_12 +0 p1_0_12 >= -1
+1 x_0_24_0 -1 x_0_24_1 -1 x_0_24_2 +0 x_0_24_3 +0 x_0_12_0_sb +0 x_0_12_1_sb +1 x_0_12_2_sb -1 x_0_12_3_sb +0 p0_0_12 -1 p1_0_12 >= -3
+1 x_0_24_0 -1 x_0_24_1 +0 x_0_24_2 -1 x_0_24_3 +0 x_0_12_0_sb +0 x_0_12_1_sb +0 x_0_12_2_sb +0 x_0_12_3_sb +0 p0_0_12 +1 p1_0_12 >= -1
+1 x_0_24_0 +0 x_0_24_1 +0 x_0_24_2 +0 x_0_24_3 -1 x_0_12_0_sb +1 x_0_12_1_sb +0 x_0_12_2_sb -1 x_0_12_3_sb +0 p0_0_12 +1 p1_0_12 >= -1
+1 x_0_24_0 +0 x_0_24_1 +0 x_0_24_2 +0 x_0_24_3 -1 x_0_12_0_sb -1 x_0_12_1_sb +0 x_0_12_2_sb +1 x_0_12_3_sb +0 p0_0_12 +1 p1_0_12 >= -1
-1 x_0_24_0 -1 x_0_24_1 +0 x_0_24_2 +1 x_0_24_3 +1 x_0_12_0_sb +0 x_0_12_1_sb +0 x_0_12_2_sb +0 x_0_12_3_sb +0 p0_0_12 +1 p1_0_12 >= -1
-1 x_0_24_0 +1 x_0_24_1 +0 x_0_24_2 -1 x_0_24_3 +1 x_0_12_0_sb +0 x_0_12_1_sb +0 x_0_12_2_sb +0 x_0_12_3_sb +0 p0_0_12 +1 p1_0_12 >= -1
+0 x_0_24_0 -1 x_0_24_1 +0 x_0_24_2 -1 x_0_24_3 +0 x_0_12_0_sb -1 x_0_12_1_sb +0 x_0_12_2_sb -1 x_0_12_3_sb +0 p0_0_12 +1 p1_0_12 >= -3
+1 x_0_24_0 +1 x_0_24_1 +0 x_0_24_2 +1 x_0_24_3 +0 x_0_12_0_sb +0 x_0_12_1_sb -1 x_0_12_2_sb +0 x_0_12_3_sb +0 p0_0_12 +0 p1_0_12 >= 0
-1 x_0_24_0 +0 x_0_24_1 +1 x_0_24_2 -1 x_0_24_3 +0 x_0_12_0_sb -1 x_0_12_1_sb -1 x_0_12_2_sb +0 x_0_12_3_sb +0 p0_0_12 -1 p1_0_12 >= -4
+1 x_0_24_0 +1 x_0_24_1 +0 x_0_24_2 -1 x_0_24_3 +1 x_0_12_0_sb +1 x_0_12_1_sb +0 x_0_12_2_sb -1 x_0_12_3_sb +0 p0_0_12 -1 p1_0_12 >= -2
+1 x_0_24_0 +0 x_0_24_1 +1 x_0_24_2 +0 x_0_24_3 +0 x_0_12_0_sb +1 x_0_12_1_sb +1 x_0_12_2_sb +1 x_0_12_3_sb +0 p0_0_12 -1 p1_0_12 >= 0
+1 x_0_24_0 +0 x_0_24_1 -1 x_0_24_2 -1 x_0_24_3 -1 x_0_12_0_sb -1 x_0_12_1_sb +0 x_0_12_2_sb -1 x_0_12_3_sb +0 p0_0_12 -1 p1_0_12 >= -5
+0 x_0_24_0 +0 x_0_24_1 +1 x_0_24_2 +1 x_0_24_3 -1 x_0_12_0_sb +0 x_0_12_1_sb -1 x_0_12_2_sb +0 x_0_12_3_sb +0 p0_0_12 -1 p1_0_12 >= -2
+0 x_0_24_0 +0 x_0_24_1 +1 x_0_24_2 +0 x_0_24_3 +1 x_0_12_0_sb -1 x_0_12_1_sb +0 x_0_12_2_sb -1 x_0_12_3_sb +0 p0_0_12 +0 p1_0_12 >= -1
+0 x_0_24_0 -1 x_0_24_1 +0 x_0_24_2 -1 x_0_24_3 +0 x_0_12_0_sb +1 x_0_12_1_sb +0 x_0_12_2_sb +1 x_0_12_3_sb +0 p0_0_12 +1 p1_0_12 >= -1
+0 x_0_24_0 +1 x_0_24_1 +0 x_0_24_2 +1 x_0_24_3 +0 x_0_12_0_sb -1 x_0_12_1_sb +0 x_0_12_2_sb -1 x_0_12_3_sb +0 p0_0_12 +1 p1_0_12 >= -1
+1 x_0_24_0 -1 x_0_24_1 +1 x_0_24_2 -1 x_0_24_3 +1 x_0_12_0_sb +0 x_0_12_1_sb +0 x_0_12_2_sb +0 x_0_12_3_sb +0 p0_0_12 +0 p1_0_12 >= -1
+1 x_0_24_0 +0 x_0_24_1 +0 x_0_24_2 +0 x_0_24_3 +1 x_0_12_0_sb -1 x_0_12_1_sb +1 x_0_12_2_sb -1 x_0_12_3_sb +0 p0_0_12 +0 p1_0_12 >= -1
+0 x_0_24_0 -1 x_0_24_1 +0 x_0_24_2 -1 x_0_24_3 +1 x_0_12_0_sb -1 x_0_12_1_sb -1 x_0_12_2_sb -1 x_0_12_3_sb +0 p0_0_12 +0 p1_0_12 >= -4
+1 x_0_24_0 +0 x_0_24_1 +0 x_0_24_2 +1 x_0_24_3 +0 x_0_12_0_sb -1 x_0_12_1_sb -1 x_0_12_2_sb +1 x_0_12_3_sb +0 p0_0_12 -1 p1_0_12 >= -2
+0 x_0_24_0 +0 x_0_24_1 -1 x_0_24_2 +1 x_0_24_3 -1 x_0_12_0_sb +1 x_0_12_1_sb +0 x_0_12_2_sb -1 x_0_12_3_sb +0 p0_0_12 -1 p1_0_12 >= -3
+0 x_0_24_0 +1 x_0_24_1 +0 x_0_24_2 +1 x_0_24_3 -1 x_0_12_0_sb -1 x_0_12_1_sb +0 x_0_12_2_sb +1 x_0_12_3_sb +0 p0_0_12 -1 p1_0_12 >= -2
-1 x_0_24_0 +1 x_0_24_1 +0 x_0_24_2 -1 x_0_24_3 +0 x_0_12_0_sb +0 x_0_12_1_sb -1 x_0_12_2_sb +1 x_0_12_3_sb +0 p0_0_12 -1 p1_0_12 >= -3
-1 x_0_24_0 +0 x_0_24_1 +0 x_0_24_2 +0 x_0_24_3 -1 x_0_12_0_sb +1 x_0_12_1_sb +0 x_0_12_2_sb -1 x_0_12_3_sb +0 p0_0_12 -1 p1_0_12 >= -3
+0 x_0_24_0 +0 x_0_24_1 -1 x_0_24_2 +0 x_0_24_3 +1 x_0_12_0_sb +1 x_0_12_1_sb +0 x_0_12_2_sb +1 x_0_12_3_sb +0 p0_0_12 +0 p1_0_12 >= 0
+0 x_0_26_0 +0 x_0_26_1 +0 x_0_26_2 +0 x_0_26_3 +0 x_0_13_0_sb +0 x_0_13_1_sb +0 x_0_13_2_sb +0 x_0_13_3_sb -1 p0_0_13 -1 p1_0_13 >= -1
+0 x_0_26_0 +0 x_0_26_1 +0 x_0_26_2 +0 x_0_26_3 +0 x_0_13_0_sb +0 x_0_13_1_sb +0 x_0_13_2_sb -1 x_0_13_3_sb +1 p0_0_13 +1 p1_0_13 >= 0
+0 x_0_26_0 +0 x_0_26_1 +0 x_0_26_2 +0 x_0_26_3 +0 x_0_13_0_sb -1 x_0_13_1_sb +0 x_0_13_2_sb +0 x_0_13_3_sb +1 p0_0_13 +1 p1_0_13 >= 0
+0 x_0_26_0 +0 x_0_26_1 +0 x_0_26_2 +0 x_0_26_3 -1 x_0_13_0_sb +0 x_0_13_1_sb +0 x_0_13_2_sb +0 x_0_13_3_sb +1 p0_0_13 +1 p1_0_13 >= 0
+0 x_0_26_0 +0 x_0_26_1 +0 x_0_26_2 +0 x_0_26_3 +1 x_0_13_0_sb +1 x_0_13_1_sb +1 x_0_13_2_sb +1 x_0_13_3_sb +0 p0_0_13 -1 p1_0_13 >= 0
+0 x_0_26_0 +0 x_0_26_1 +0 x_0_26_2 -1 x_0_26_3 +1 x_0_13_0_sb +1 x_0_13_1_sb +0 x_0_13_2_sb +1 x_0_13_3_sb +0 p0_0_13 +1 p1_0_13 >= 0
-1 x_0_26_0 +0 x_0_26_1 -1 x_0_26_2 +0 x_0_26_3 +1 x_0_13_0_sb +0 x_0_13_1_sb +0 x_0_13_2_sb +1 x_0_13_3_sb +0 p0_0_13 -1 p1_0_13 >= -2
+1 x_0_26_0 +0 x_0_26_1 +1 x_0_26_2 +0 x_0_26_3 +1 x_0_13_0_sb +0 x_0_13_1_sb +1 x_0_13_2_sb +0 x_0_13_3_sb +0 p0_0_13 -1 p1_0_13 >= 0
+0 x_0_26_0 +0 x_0_26_1 +0 x_0_26_2 +1 x_0_26_3 +0 x_0_13_0_sb +1 x_0_13_1_sb -1 x_0_13_2_sb -1 x_0_13_3_sb +0 p0_0_13 -1 p1_0_13 >= -2
-1 x_0_26_0 +0 x_0_26_1 +0 x_0_26_2 -1 x_0_26_3 -1 x_0_13_0_sb +0 x_0_13_1_sb +0 x_0_13_2_sb +1 x_0_13_3_sb +0 p0_0_13 -1 p1_0_13 >= -3
+0 x_0_26_0 +0 x_0_26_1 +0 x_0_26_2 +1 x_0_26_3 -1 x_0_13_0_sb -1 x_0_13_1_sb -1 x_0_13_2_sb +0 x_0_13_3_sb +0 p0_0_13 -1 p1_0_13 >= -3
+1 x_0_26_0 +1 x_0_26_1 +0 x_0_26_2 +1 x_0_26_3 +0 x_0_13_0_sb +0 x_0_13_1_sb +0 x_0_13_2_sb +0 x_0_13_3_sb -1 p0_0_13 +0 p1_0_13 >= 0
+0 x_0_26_0 +0 x_0_26_1 +1 x_0_26_2 +1 x_0_26_3 +0 x_0_13_0_sb -1 x_0_13_1_sb +1 x_0_13_2_sb +0 x_0_13_3_sb +0 p0_0_13 -1 p1_0_13 >= -1
+0 x_0_26_0 +1 x_0_26_1 +0 x_0_26_2 -1 x_0_26_3 -1 x_0_13_0_sb +0 x_0_13_1_sb -1 x_0_13_2_sb +0 x_0_13_3_sb +0 p0_0_13 -1 p1_0_13 >= -3
+0 x_0_26_0 +1 x_0_26_1 +1 x_0_26_2 +0 x_0_26_3 +0 x_0_13_0_sb +0 x_0_13_1_sb +1 x_0_13_2_sb -1 x_0_13_3_sb +0 p0_0_13 -1 p1_0_13 >= -1
-1 x_0_26_0 +0 x_0_26_1 -1 x_0_26_2 +0 x_0_26_3 -1 x_0_13_0_sb +0 x_0_13_1_sb +1 x_0_13_2_sb +0 x_0_13_3_sb +0 p0_0_13 -1 p1_0_13 >= -3
+0 x_0_26_0 -1 x_0_26_1 -1 x_0_26_2 +0 x_0_26_3 +0 x_0_13_0_sb +1 x_0_13_1_sb +0 x_0_13_2_sb +1 x_0_13_3_sb +0 p0_0_13 -1 p1_0_13 >= -2
+0 x_0_26_0 -1 x_0_26_1 +0 x_0_26_2 +0 x_0_26_3 +1 x_0_13_0_sb +1 x_0_13_1_sb +0 x_0_13_2_sb +1 x_0_13_3_sb +0 p0_0_13 +1 p1_0_13 >= 0
-1 x_0_26_0 -1 x_0_26_1 +0 x_0_26_2 +1 x_0_26_3 +0 x_0_13_0_sb +1 x_0_13_1_sb +0 x_0_13_2_sb +1 x_0_13_3_sb +0 p0_0_13 -1 p1_0_13 >= -2
+0 x_0_26_0 -1 x_0_26_1 +0 x_0_26_2 +0 x_0_26_3 +1 x_0_13_0_sb +0 x_0_13_1_sb +1 x_0_13_2_sb +1 x_0_13_3_sb +0 p0_0_13 -1 p1_0_13 >= -1
-1 x_0_26_0 +0 x_0_26_1 -1 x_0_26_2 +0 x_0_26_3 +1 x_0_13_0_sb +1 x_0_13_1_sb +0 x_0_13_2_sb +0 x_0_13_3_sb +0 p0_0_13 -1 p1_0_13 >= -2
+0 x_0_26_0 +1 x_0_26_1 -1 x_0_26_2 -1 x_0_26_3 +0 x_0_13_0_sb +0 x_0_13_1_sb +0 x_0_13_2_sb +1 x_0_13_3_sb +0 p0_0_13 -1 p1_0_13 >= -2
-1 x_0_26_0 -1 x_0_26_1 +0 x_0_26_2 -1 x_0_26_3 +0 x_0_13_0_sb +1 x_0_13_1_sb +0 x_0_13_2_sb -1 x_0_13_3_sb +0 p0_0_13 -1 p1_0_13 >= -4
-1 x_0_26_0 +1 x_0_26_1 +0 x_0_26_2 +1 x_0_26_3 +0 x_0_13_0_sb +1 x_0_13_1_sb +0 x_0_13_2_sb +1 x_0_13_3_sb +0 p0_0_13 +1 p1_0_13 >= 0
+0 x_0_26_0 +0 x_0_26_1 +0 x_0_26_2 +0 x_0_26_3 +1 x_0_13_0_sb -1 x_0_13_1_sb +0 x_0_13_2_sb -1 x_0_13_3_sb +0 p0_0_13 +1 p1_0_13 >= -1
+1 x_0_26_0 +0 x_0_26_1 +1 x_0_26_2 +0 x_0_26_3 +1 x_0_13_0_sb -1 x_0_13_1_sb +0 x_0_13_2_sb +0 x_0_13_3_sb +0 p0_0_13 -1 p1_0_13 >= -1
+0 x_0_26_0 +1 x_0_26_1 +0 x_0_26_2 +1 x_0_26_3 +0 x_0_13_0_sb -1 x_0_13_1_sb -1 x_0_13_2_sb +0 x_0_13_3_sb +0 p0_0_13 -1 p1_0_13 >= -2
+1 x_0_26_0 -1 x_0_26_1 +0 x_0_26_2 -1 x_0_26_3 +0 x_0_13_0_sb +0 x_0_13_1_sb +1 x_0_13_2_sb +0 x_0_13_3_sb +0 p0_0_13 +0 p1_0_13 >= -1
+1 x_0_26_0 -1 x_0_26_1 -1 x_0_26_2 +0 x_0_26_3 +0 x_0_13_0_sb +0 x_0_13_1_sb +1 x_0_13_2_sb -1 x_0_13_3_sb +0 p0_0_13 -1 p1_0_13 >= -3
+1 x_0_26_0 -1 x_0_26_1 +0 x_0_26_2 -1 x_0_26_3 +0 x_0_13_0_sb +0 x_0_13_1_sb +0 x_0_13_2_sb +0 x_0_13_3_sb +0 p0_0_13 +1 p1_0_13 >= -1
+1 x_0_26_0 +0 x_0_26_1 +0 x_0_26_2 +0 x_0_26_3 -1 x_0_13_0_sb +1 x_0_13_1_sb +0 x_0_13_2_sb -1 x_0_13_3_sb +0 p0_0_13 +1 p1_0_13 >= -1
+1 x_0_26_0 +0 x_0_26_1 +0 x_0_26_2 +0 x_0_26_3 -1 x_0_13_0_sb -1 x_0_13_1_sb +0 x_0_13_2_sb +1 x_0_13_3_sb +0 p0_0_13 +1 p1_0_13 >= -1
-1 x_0_26_0 -1 x_0_26_1 +0 x_0_26_2 +1 x_0_26_3 +1 x_0_13_0_sb +0 x_0_13_1_sb +0 x_0_13_2_sb +0 x_0_13_3_sb +0 p0_0_13 +1 p1_0_13 >= -1
-1 x_0_26_0 +1 x_0_26_1 +0 x_0_26_2 -1 x_0_26_3 +1 x_0_13_0_sb +0 x_0_13_1_sb +0 x_0_13_2_sb +0 x_0_13_3_sb +0 p0_0_13 +1 p1_0_13 >= -1
+0 x_0_26_0 -1 x_0_26_1 +0 x_0_26_2 -1 x_0_26_3 +0 x_0_13_0_sb -1 x_0_13_1_sb +0 x_0_13_2_sb -1 x_0_13_3_sb +0 p0_0_13 +1 p1_0_13 >= -3
+1 x_0_26_0 +1 x_0_26_1 +0 x_0_26_2 +1 x_0_26_3 +0 x_0_13_0_sb +0 x_0_13_1_sb -1 x_0_13_2_sb +0 x_0_13_3_sb +0 p0_0_13 +0 p1_0_13 >= 0
-1 x_0_26_0 +0 x_0_26_1 +1 x_0_26_2 -1 x_0_26_3 +0 x_0_13_0_sb -1 x_0_13_1_sb -1 x_0_13_2_sb +0 x_0_13_3_sb +0 p0_0_13 -1 p1_0_13 >= -4
+1 x_0_26_0 +1 x_0_26_1 +0 x_0_26_2 -1 x_0_26_3 +1 x_0_13_0_sb +1 x_0_13_1_sb +0 x_0_13_2_sb -1 x_0_13_3_sb +0 p0_0_13 -1 p1_0_13 >= -2
+1 x_0_26_0 +0 x_0_26_1 +1 x_0_26_2 +0 x_0_26_3 +0 x_0_13_0_sb +1 x_0_13_1_sb +1 x_0_13_2_sb +1 x_0_13_3_sb +0 p0_0_13 -1 p1_0_13 >= 0
+1 x_0_26_0 +0 x_0_26_1 -1 x_0_26_2 -1 x_0_26_3 -1 x_0_13_0_sb -1 x_0_13_1_sb +0 x_0_13_2_sb -1 x_0_13_3_sb +0 p0_0_13 -1 p1_0_13 >= -5
+0 x_0_26_0 +0 x_0_26_1 +1 x_0_26_2 +1 x_0_26_3 -1 x_0_13_0_sb +0 x_0_13_1_sb -1 x_0_13_2_sb +0 x_0_13_3_sb +0 p0_0_13 -1 p1_0_13 >= -2
+0 x_0_26_0 +0 x_0_26_1 +1 x_0_26_2 +0 x_0_26_3 +1 x_0_13_0_sb -1 x_0_13_1_sb +0 x_0_13_2_sb -1 x_0_13_3_sb +0 p0_0_13 +0 p1_0_13 >= -1
+0 x_0_26_0 -1 x_0_26_1 +0 x_0_26_2 -1 x_0_26_3 +0 x_0_13_0_sb +1 x_0_13_1_sb +0 x_0_13_2_sb +1 x_0_13_3_sb +0 p0_0_13 +1 p1_0_13 >= -1
+0 x_0_26_0 +1 x_0_26_1 +0 x_0_26_2 +1 x_0_26_3 +0 x_0_13_0_sb -1 x_0_13_1_sb +0 x_0_13_2_sb -1 x_0_13_3_sb +0 p0_0_13 +1 p1_0_13 >= -1
+1 x_0_26_0 -1 x_0_26_1 +1 x_0_26_2 -1 x_0_26_3 +1 x_0_13_0_sb +0 x_0_13_1_sb +0 x_0_13_2_sb +0 x_0_13_3_sb +0 p0_0_13 +0 p1_0_13 >= -1
+1 x_0_26_0 +0 x_0_26_1 +0 x_0_26_2 +0 x_0_26_3 +1 x_0_13_0_sb -1 x_0_13_1_sb +1 x_0_13_2_sb -1 x_0_13_3_sb +0 p0_0_13 +0 p1_0_13 >= -1
+0 x_0_26_0 -1 x_0_26_1 +0 x_0_26_2 -1 x_0_26_3 +1 x_0_13_0_sb -1 x_0_13_1_sb -1 x_0_13_2_sb -1 x_0_13_3_sb +0 p0_0_13 +0 p1_0_13 >= -4
+1 x_0_26_0 +0 x_0_26_1 +0 x_0_26_2 +1 x_0_26_3 +0 x_0_13_0_sb -1 x_0_13_1_sb -1 x_0_13_2_sb +1 x_0_13_3_sb +0 p0_0_13 -1 p1_0_13 >= -2
+0 x_0_26_0 +0 x_0_26_1 -1 x_0_26_2 +1 x_0_26_3 -1 x_0_13_0_sb +1 x_0_13_1_sb +0 x_0_13_2_sb -1 x_0_13_3_sb +0 p0_0_13 -1 p1_0_13 >= -3
+0 x_0_26_0 +1 x_0_26_1 +0 x_0_26_2 +1 x_0_26_3 -1 x_0_13_0_sb -1 x_0_13_1_sb +0 x_0_13_2_sb +1 x_0_13_3_sb +0 p0_0_13 -1 p1_0_13 >= -2
-1 x_0_26_0 +1 x_0_26_1 +0 x_0_26_2 -1 x_0_26_3 +0 x_0_13_0_sb +0 x_0_13_1_sb -1 x_0_13_2_sb +1 x_0_13_3_sb +0 p0_0_13 -1 p1_0_13 >= -3
-1 x_0_26_0 +0 x_0_26_1 +0 x_0_26_2 +0 x_0_26_3 -1 x_0_13_0_sb +1 x_0_13_1_sb +0 x_0_13_2_sb -1 x_0_13_3_sb +0 p0_0_13 -1 p1_0_13 >= -3
+0 x_0_26_0 +0 x_0_26_1 -1 x_0_26_2 +0 x_0_26_3 +1 x_0_13_0_sb +1 x_0_13_1_sb +0 x_0_13_2_sb +1 x_0_13_3_sb +0 p0_0_13 +0 p1_0_13 >= 0
+0 x_0_28_0 +0 x_0_28_1 +0 x_0_28_2 +0 x_0_28_3 +0 x_0_14_0_sb +0 x_0_14_1_sb +0 x_0_14_2_sb +0 x_0_14_3_sb -1 p0_0_14 -1 p1_0_14 >= -1
+0 x_0_28_0 +0 x_0_28_1 +0 x_0_28_2 +0 x_0_28_3 +0 x_0_14_0_sb +0 x_0_14_1_sb +0 x_0_14_2_sb -1 x_0_14_3_sb +1 p0_0_14 +1 p1_0_14 >= 0
+0 x_0_28_0 +0 x_0_28_1 +0 x_0_28_2 +0 x_0_28_3 +0 x_0_14_0_sb -1 x_0_14_1_sb +0 x_0_14_2_sb +0 x_0_14_3_sb +1 p0_0_14 +1 p1_0_14 >= 0
+0 x_0_28_0 +0 x_0_28_1 +0 x_0_28_2 +0 x_0_28_3 -1 x_0_14_0_sb +0 x_0_14_1_sb +0 x_0_14_2_sb +0 x_0_14_3_sb +1 p0_0_14 +1 p1_0_14 >= 0
+0 x_0_28_0 +0 x_0_28_1 +0 x_0_28_2 +0 x_0_28_3 +1 x_0_14_0_sb +1 x_0_14_1_sb +1 x_0_14_2_sb +1 x_0_14_3_sb +0 p0_0_14 -1 p1_0_14 >= 0
+0 x_0_28_0 +0 x_0_28_1 +0 x_0_28_2 -1 x_0_28_3 +1 x_0_14_0_sb +1 x_0_14_1_sb +0 x_0_14_2_sb +1 x_0_14_3_sb +0 p0_0_14 +1 p1_0_14 >= 0
-1 x_0_28_0 +0 x_0_28_1 -1 x_0_28_2 +0 x_0_28_3 +1 x_0_14_0_sb +0 x_0_14_1_sb +0 x_0_14_2_sb +1 x_0_14_3_sb +0 p0_0_14 -1 p1_0_14 >= -2
+1 x_0_28_0 +0 x_0_28_1 +1 x_0_28_2 +0 x_0_28_3 +1 x_0_14_0_sb +0 x_0_14_1_sb +1 x_0_14_2_sb +0 x_0_14_3_sb +0 p0_0_14 -1 p1_0_14 >= 0
+0 x_0_28_0 +0 x_0_28_1 +0 x_0_28_2 +1 x_0_28_3 +0 x_0_14_0_sb +1 x_0_14_1_sb -1 x_0_14_2_sb -1 x_0_14_3_sb +0 p0_0_14 -1 p1_0_14 >= -2
-1 x_0_28_0 +0 x_0_28_1 +0 x_0_28_2 -1 x_0_28_3 -1 x_0_14_0_sb +0 x_0_14_1_sb +0 x_0_14_2_sb +1 x_0_14_3_sb +0 p0_0_14 -1 p1_0_14 >= -3
+0 x_0_28_0 +0 x_0_28_1 +0 x_0_28_2 +1 x_0_28_3 -1 x_0_14_0_sb -1 x_0_14_1_sb -1 x_0_14_2_sb +0 x_0_14_3_sb +0 p0_0_14 -1 p1_0_14 >= -3
+1 x_0_28_0 +1 x_0_28_1 +0 x_0_28_2 +1 x_0_28_3 +0 x_0_14_0_sb +0 x_0_14_1_sb +0 x_0_14_2_sb +0 x_0_14_3_sb -1 p0_0_14 +0 p1_0_14 >= 0
+0 x_0_28_0 +0 x_0_28_1 +1 x_0_28_2 +1 x_0_28_3 +0 x_0_14_0_sb -1 x_0_14_1_sb +1 x_0_14_2_sb +0 x_0_14_3_sb +0 p0_0_14 -1 p1_0_14 >= -1
+0 x_0_28_0 +1 x_0_28_1 +0 x_0_28_2 -1 x_0_28_3 -1 x_0_14_0_sb +0 x_0_14_1_sb -1 x_0_14_2_sb +0 x_0_14_3_sb +0 p0_0_14 -1 p1_0_14 >= -3
+0 x_0_28_0 +1 x_0_28_1 +1 x_0_28_2 +0 x_0_28_3 +0 x_0_14_0_sb +0 x_0_14_1_sb +1 x_0_14_2_sb -1 x_0_14_3_sb +0 p0_0_14 -1 p1_0_14 >= -1
-1 x_0_28_0 +0 x_0_28_1 -1 x_0_28_2 +0 x_0_28_3 -1 x_0_14_0_sb +0 x_0_14_1_sb +1 x_0_14_2_sb +0 x_0_14_3_sb +0 p0_0_14 -1 p1_0_14 >= -3
+0 x_0_28_0 -1 x_0_28_1 -1 x_0_28_2 +0 x_0_28_3 +0 x_0_14_0_sb +1 x_0_14_1_sb +0 x_0_14_2_sb +1 x_0_14_3_sb +0 p0_0_14 -1 p1_0_14 >= -2
+0 x_0_28_0 -1 x_0_28_1 +0 x_0_28_2 +0 x_0_28_3 +1 x_0_14_0_sb +1 x_0_14_1_sb +0 x_0_14_2_sb +1 x_0_14_3_sb +0 p0_0_14 +1 p1_0_14 >= 0
-1 x_0_28_0 -1 x_0_28_1 +0 x_0_28_2 +1 x_0_28_3 +0 x_0_14_0_sb +1 x_0_14_1_sb +0 x_0_14_2_sb +1 x_0_14_3_sb +0 p0_0_14 -1 p1_0_14 >= -2
+0 x_0_28_0 -1 x_0_28_1 +0 x_0_28_2 +0 x_0_28_3 +1 x_0_14_0_sb +0 x_0_14_1_sb +1 x_0_14_2_sb +1 x_0_14_3_sb +0 p0_0_14 -1 p1_0_14 >= -1
-1 x_0_28_0 +0 x_0_28_1 -1 x_0_28_2 +0 x_0_28_3 +1 x_0_14_0_sb +1 x_0_14_1_sb +0 x_0_14_2_sb +0 x_0_14_3_sb +0 p0_0_14 -1 p1_0_14 >= -2
+0 x_0_28_0 +1 x_0_28_1 -1 x_0_28_2 -1 x_0_28_3 +0 x_0_14_0_sb +0 x_0_14_1_sb +0 x_0_14_2_sb +1 x_0_14_3_sb +0 p0_0_14 -1 p1_0_14 >= -2
-1 x_0_28_0 -1 x_0_28_1 +0 x_0_28_2 -1 x_0_28_3 +0 x_0_14_0_sb +1 x_0_14_1_sb +0 x_0_14_2_sb -1 x_0_14_3_sb +0 p0_0_14 -1 p1_0_14 >= -4
-1 x_0_28_0 +1 x_0_28_1 +0 x_0_28_2 +1 x_0_28_3 +0 x_0_14_0_sb +1 x_0_14_1_sb +0 x_0_14_2_sb +1 x_0_14_3_sb +0 p0_0_14 +1 p1_0_14 >= 0
+0 x_0_28_0 +0 x_0_28_1 +0 x_0_28_2 +0 x_0_28_3 +1 x_0_14_0_sb -1 x_0_14_1_sb +0 x_0_14_2_sb -1 x_0_14_3_sb +0 p0_0_14 +1 p1_0_14 >= -1
+1 x_0_28_0 +0 x_0_28_1 +1 x_0_28_2 +0 x_0_28_3 +1 x_0_14_0_sb -1 x_0_14_1_sb +0 x_0_14_2_sb +0 x_0_14_3_sb +0 p0_0_14 -1 p1_0_14 >= -1
+0 x_0_28_0 +1 x_0_28_1 +0 x_0_28_2 +1 x_0_28_3 +0 x_0_14_0_sb -1 x_0_14_1_sb -1 x_0_14_2_sb +0 x_0_14_3_sb +0 p0_0_14 -1 p1_0_14 >= -2
+1 x_0_28_0 -1 x_0_28_1 +0 x_0_28_2 -1 x_0_28_3 +0 x_0_14_0_sb +0 x_0_14_1_sb +1 x_0_14_2_sb +0 x_0_14_3_sb +0 p0_0_14 +0 p1_0_14 >= -1
+1 x_0_28_0 -1 x_0_28_1 -1 x_0_28_2 +0 x_0_28_3 +0 x_0_14_0_sb +0 x_0_14_1_sb +1 x_0_14_2_sb -1 x_0_14_3_sb +0 p0_0_14 -1 p1_0_14 >= -3
+1 x_0_28_0 -1 x_0_28_1 +0 x_0_28_2 -1 x_0_28_3 +0 x_0_14_0_sb +0 x_0_14_1_sb +0 x_0_14_2_sb +0 x_0_14_3_sb +0 p0_0_14 +1 p1_0_14 >= -1
+1 x_0_28_0 +0 x_0_28_1 +0 x_0_28_2 +0 x_0_28_3 -1 x_0_14_0_sb +1 x_0_14_1_sb +0 x_0_14_2_sb -1 x_0_14_3_sb +0 p0_0_14 +1 p1_0_14 >= -1
+1 x_0_28_0 +0 x_0_28_1 +0 x_0_28_2 +0 x_0_28_3 -1 x_0_14_0_sb -1 x_0_14_1_sb +0 x_0_14_2_sb +1 x_0_14_3_sb +0 p0_0_14 +1 p1_0_14 >= -1
-1 x_0_28_0 -1 x_0_28_1 +0 x_0_28_2 +1 x_0_28_3 +1 x_0_14_0_sb +0 x_0_14_1_sb +0 x_0_14_2_sb +0 x_0_14_3_sb +0 p0_0_14 +1 p1_0_14 >= -1
-1 x_0_28_0 +1 x_0_28_1 +0 x_0_28_2 -1 x_0_28_3 +1 x_0_14_0_sb +0 x_0_14_1_sb +0 x_0_14_2_sb +0 x_0_14_3_sb +0 p0_0_14 +1 p1_0_14 >= -1
+0 x_0_28_0 -1 x_0_28_1 +0 x_0_28_2 -1 x_0_28_3 +0 x_0_14_0_sb -1 x_0_14_1_sb +0 x_0_14_2_sb -1 x_0_14_3_sb +0 p0_0_14 +1 p1_0_14 >= -3
+1 x_0_28_0 +1 x_0_28_1 +0 x_0_28_2 +1 x_0_28_3 +0 x_0_14_0_sb +0 x_0_14_1_sb -1 x_0_14_2_sb +0 x_0_14_3_sb +0 p0_0_14 +0 p1_0_14 >= 0
-1 x_0_28_0 +0 x_0_28_1 +1 x_0_28_2 -1 x_0_28_3 +0 x_0_14_0_sb -1 x_0_14_1_sb -1 x_0_14_2_sb +0 x_0_14_3_sb +0 p0_0_14 -1 p1_0_14 >= -4
+1 x_0_28_0 +1 x_0_28_1 +0 x_0_28_2 -1 x_0_28_3 +1 x_0_14_0_sb +1 x_0_14_1_sb +0 x_0_14_2_sb -1 x_0_14_3_sb +0 p0_0_14 -1 p1_0_14 >= -2
+1 x_0_28_0 +0 x_0_28_1 +1 x_0_28_2 +0 x_0_28_3 +0 x_0_14_0_sb +1 x_0_14_1_sb +1 x_0_14_2_sb +1 x_0_14_3_sb +0 p0_0_14 -1 p1_0_14 >= 0
+1 x_0_28_0 +0 x_0_28_1 -1 x_0_28_2 -1 x_0_28_3 -1 x_0_14_0_sb -1 x_0_14_1_sb +0 x_0_14_2_sb -1 x_0_14_3_sb +0 p0_0_14 -1 p1_0_14 >= -5
+0 x_0_28_0 +0 x_0_28_1 +1 x_0_28_2 +1 x_0_28_3 -1 x_0_14_0_sb +0 x_0_14_1_sb -1 x_0_14_2_sb +0 x_0_14_3_sb +0 p0_0_14 -1 p1_0_14 >= -2
+0 x_0_28_0 +0 x_0_28_1 +1 x_0_28_2 +0 x_0_28_3 +1 x_0_14_0_sb -1 x_0_14_1_sb +0 x_0_14_2_sb -1 x_0_14_3_sb +0 p0_0_14 +0 p1_0_14 >= -1
+0 x_0_28_0 -1 x_0_28_1 +0 x_0_28_2 -1 x_0_28_3 +0 x_0_14_0_sb +1 x_0_14_1_sb +0 x_0_14_2_sb +1 x_0_14_3_sb +0 p0_0_14 +1 p1_0_14 >= -1
+0 x_0_28_0 +1 x_0_28_1 +0 x_0_28_2 +1 x_0_28_3 +0 x_0_14_0_sb -1 x_0_14_1_sb +0 x_0_14_2_sb -1 x_0_14_3_sb +0 p0_0_14 +1 p1_0_14 >= -1
+1 x_0_28_0 -1 x_0_28_1 +1 x_0_28_2 -1 x_0_28_3 +1 x_0_14_0_sb +0 x_0_14_1_sb +0 x_0_14_2_sb +0 x_0_14_3_sb +0 p0_0_14 +0 p1_0_14 >= -1
+1 x_0_28_0 +0 x_0_28_1 +0 x_0_28_2 +0 x_0_28_3 +1 x_0_14_0_sb -1 x_0_14_1_sb +1 x_0_14_2_sb -1 x_0_14_3_sb +0 p0_0_14 +0 p1_0_14 >= -1
+0 x_0_28_0 -1 x_0_28_1 +0 x_0_28_2 -1 x_0_28_3 +1 x_0_14_0_sb -1 x_0_14_1_sb -1 x_0_14_2_sb -1 x_0_14_3_sb +0 p0_0_14 +0 p1_0_14 >= -4
+1 x_0_28_0 +0 x_0_28_1 +0 x_0_28_2 +1 x_0_28_3 +0 x_0_14_0_sb -1 x_0_14_1_sb -1 x_0_14_2_sb +1 x_0_14_3_sb +0 p0_0_14 -1 p1_0_14 >= -2
+0 x_0_28_0 +0 x_0_28_1 -1 x_0_28_2 +1 x_0_28_3 -1 x_0_14_0_sb +1 x_0_14_1_sb +0 x_0_14_2_sb -1 x_0_14_3_sb +0 p0_0_14 -1 p1_0_14 >= -3
+0 x_0_28_0 +1 x_0_28_1 +0 x_0_28_2 +1 x_0_28_3 -1 x_0_14_0_sb -1 x_0_14_1_sb +0 x_0_14_2_sb +1 x_0_14_3_sb +0 p0_0_14 -1 p1_0_14 >= -2
-1 x_0_28_0 +1 x_0_28_1 +0 x_0_28_2 -1 x_0_28_3 +0 x_0_14_0_sb +0 x_0_14_1_sb -1 x_0_14_2_sb +1 x_0_14_3_sb +0 p0_0_14 -1 p1_0_14 >= -3
-1 x_0_28_0 +0 x_0_28_1 +0 x_0_28_2 +0 x_0_28_3 -1 x_0_14_0_sb +1 x_0_14_1_sb +0 x_0_14_2_sb -1 x_0_14_3_sb +0 p0_0_14 -1 p1_0_14 >= -3
+0 x_0_28_0 +0 x_0_28_1 -1 x_0_28_2 +0 x_0_28_3 +1 x_0_14_0_sb +1 x_0_14_1_sb +0 x_0_14_2_sb +1 x_0_14_3_sb +0 p0_0_14 +0 p1_0_14 >= 0
+0 x_0_30_0 +0 x_0_30_1 +0 x_0_30_2 +0 x_0_30_3 +0 x_0_15_0_sb +0 x_0_15_1_sb +0 x_0_15_2_sb +0 x_0_15_3_sb -1 p0_0_15 -1 p1_0_15 >= -1
+0 x_0_30_0 +0 x_0_30_1 +0 x_0_30_2 +0 x_0_30_3 +0 x_0_15_0_sb +0 x_0_15_1_sb +0 x_0_15_2_sb -1 x_0_15_3_sb +1 p0_0_15 +1 p1_0_15 >= 0
+0 x_0_30_0 +0 x_0_30_1 +0 x_0_30_2 +0 x_0_30_3 +0 x_0_15_0_sb -1 x_0_15_1_sb +0 x_0_15_2_sb +0 x_0_15_3_sb +1 p0_0_15 +1 p1_0_15 >= 0
+0 x_0_30_0 +0 x_0_30_1 +0 x_0_30_2 +0 x_0_30_3 -1 x_0_15_0_sb +0 x_0_15_1_sb +0 x_0_15_2_sb +0 x_0_15_3_sb +1 p0_0_15 +1 p1_0_15 >= 0
+0 x_0_30_0 +0 x_0_30_1 +0 x_0_30_2 +0 x_0_30_3 +1 x_0_15_0_sb +1 x_0_15_1_sb +1 x_0_15_2_sb +1 x_0_15_3_sb +0 p0_0_15 -1 p1_0_15 >= 0
+0 x_0_30_0 +0 x_0_30_1 +0 x_0_30_2 -1 x_0_30_3 +1 x_0_15_0_sb +1 x_0_15_1_sb +0 x_0_15_2_sb +1 x_0_15_3_sb +0 p0_0_15 +1 p1_0_15 >= 0
-1 x_0_30_0 +0 x_0_30_1 -1 x_0_30_2 +0 x_0_30_3 +1 x_0_15_0_sb +0 x_0_15_1_sb +0 x_0_15_2_sb +1 x_0_15_3_sb +0 p0_0_15 -1 p1_0_15 >= -2
+1 x_0_30_0 +0 x_0_30_1 +1 x_0_30_2 +0 x_0_30_3 +1 x_0_15_0_sb +0 x_0_15_1_sb +1 x_0_15_2_sb +0 x_0_15_3_sb +0 p0_0_15 -1 p1_0_15 >= 0
+0 x_0_30_0 +0 x_0_30_1 +0 x_0_30_2 +1 x_0_30_3 +0 x_0_15_0_sb +1 x_0_15_1_sb -1 x_0_15_2_sb -1 x_0_15_3_sb +0 p0_0_15 -1 p1_0_15 >= -2
-1 x_0_30_0 +0 x_0_30_1 +0 x_0_30_2 -1 x_0_30_3 -1 x_0_15_0_sb +0 x_0_15_1_sb +0 x_0_15_2_sb +1 x_0_15_3_sb +0 p0_0_15 -1 p1_0_15 >= -3
+0 x_0_30_0 +0 x_0_30_1 +0 x_0_30_2 +1 x_0_30_3 -1 x_0_15_0_sb -1 x_0_15_1_sb -1 x_0_15_2_sb +0 x_0_15_3_sb +0 p0_0_15 -1 p1_0_15 >= -3
+1 x_0_30_0 +1 x_0_30_1 +0 x_0_30_2 +1 x_0_30_3 +0 x_0_15_0_sb +0 x_0_15_1_sb +0 x_0_15_2_sb +0 x_0_15_3_sb -1 p0_0_15 +0 p1_0_15 >= 0
+0 x_0_30_0 +0 x_0_30_1 +1 x_0_30_2 +1 x_0_30_3 +0 x_0_15_0_sb -1 x_0_15_1_sb +1 x_0_15_2_sb +0 x_0_15_3_sb +0 p0_0_15 -1 p1_0_15 >= -1
+0 x_0_30_0 +1 x_0_30_1 +0 x_0_30_2 -1 x_0_30_3 -1 x_0_15_0_sb +0 x_0_15_1_sb -1 x_0_15_2_sb +0 x_0_15_3_sb +0 p0_0_15 -1 p1_0_15 >= -3
+0 x_0_30_0 +1 x_0_30_1 +1 x_0_30_2 +0 x_0_30_3 +0 x_0_15_0_sb +0 x_0_15_1_sb +1 x_0_15_2_sb -1 x_0_15_3_sb +0 p0_0_15 -1 p1_0_15 >= -1
-1 x_0_30_0 +0 x_0_30_1 -1 x_0_30_2 +0 x_0_30_3 -1 x_0_15_0_sb +0 x_0_15_1_sb +1 x_0_15_2_sb +0 x_0_15_3_sb +0 p0_0_15 -1 p1_0_15 >= -3
+0 x_0_30_0 -1 x_0_30_1 -1 x_0_30_2 +0 x_0_30_3 +0 x_0_15_0_sb +1 x_0_15_1_sb +0 x_0_15_2_sb +1 x_0_15_3_sb +0 p0_0_15 -1 p1_0_15 >= -2
+0 x_0_30_0 -1 x_0_30_1 +0 x_0_30_2 +0 x_0_30_3 +1 x_0_15_0_sb +1 x_0_15_1_sb +0 x_0_15_2_sb +1 x_0_15_3_sb +0 p0_0_15 +1 p1_0_15 >= 0
-1 x_0_30_0 -1 x_0_30_1 +0 x_0_30_2 +1 x_0_30_3 +0 x_0_15_0_sb +1 x_0_15_1_sb +0 x_0_15_2_sb +1 x_0_15_3_sb +0 p0_0_15 -1 p1_0_15 >= -2
+0 x_0_30_0 -1 x_0_30_1 +0 x_0_30_2 +0 x_0_30_3 +1 x_0_15_0_sb +0 x_0_15_1_sb +1 x_0_15_2_sb +1 x_0_15_3_sb +0 p0_0_15 -1 p1_0_15 >= -1
-1 x_0_30_0 +0 x_0_30_1 -1 x_0_30_2 +0 x_0_30_3 +1 x_0_15_0_sb +1 x_0_15_1_sb +0 x_0_15_2_sb +0 x_0_15_3_sb +0 p0_0_15 -1 p1_0_15 >= -2
+0 x_0_30_0 +1 x_0_30_1 -1 x_0_30_2 -1 x_0_30_3 +0 x_0_15_0_sb +0 x_0_15_1_sb +0 x_0_15_2_sb +1 x_0_15_3_sb +0 p0_0_15 -1 p1_0_15 >= -2
-1 x_0_30_0 -1 x_0_30_1 +0 x_0_30_2 -1 x_0_30_3 +0 x_0_15_0_sb +1 x_0_15_1_sb +0 x_0_15_2_sb -1 x_0_15_3_sb +0 p0_0_15 -1 p1_0_15 >= -4
-1 x_0_30_0 +1 x_0_30_1 +0 x_0_30_2 +1 x_0_30_3 +0 x_0_15_0_sb +1 x_0_15_1_sb +0 x_0_15_2_sb +1 x_0_15_3_sb +0 p0_0_15 +1 p1_0_15 >= 0
+0 x_0_30_0 +0 x_0_30_1 +0 x_0_30_2 +0 x_0_30_3 +1 x_0_15_0_sb -1 x_0_15_1_sb +0 x_0_15_2_sb -1 x_0_15_3_sb +0 p0_0_15 +1 p1_0_15 >= -1
+1 x_0_30_0 +0 x_0_30_1 +1 x_0_30_2 +0 x_0_30_3 +1 x_0_15_0_sb -1 x_0_15_1_sb +0 x_0_15_2_sb +0 x_0_15_3_sb +0 p0_0_15 -1 p1_0_15 >= -1
+0 x_0_30_0 +1 x_0_30_1 +0 x_0_30_2 +1 x_0_30_3 +0 x_0_15_0_sb -1 x_0_15_1_sb -1 x_0_15_2_sb +0 x_0_15_3_sb +0 p0_0_15 -1 p1_0_15 >= -2
+1 x_0_30_0 -1 x_0_30_1 +0 x_0_30_2 -1 x_0_30_3 +0 x_0_15_0_sb +0 x_0_15_1_sb +1 x_0_15_2_sb +0 x_0_15_3_sb +0 p0_0_15 +0 p1_0_15 >= -1
+1 x_0_30_0 -1 x_0_30_1 -1 x_0_30_2 +0 x_0_30_3 +0 x_0_15_0_sb +0 x_0_15_1_sb +1 x_0_15_2_sb -1 x_0_15_3_sb +0 p0_0_15 -1 p1_0_15 >= -3
+1 x_0_30_0 -1 x_0_30_1 +0 x_0_30_2 -1 x_0_30_3 +0 x_0_15_0_sb +0 x_0_15_1_sb +0 x_0_15_2_sb +0 x_0_15_3_sb +0 p0_0_15 +1 p1_0_15 >= -1
+1 x_0_30_0 +0 x_0_30_1 +0 x_0_30_2 +0 x_0_30_3 -1 x_0_15_0_sb +1 x_0_15_1_sb +0 x_0_15_2_sb -1 x_0_15_3_sb +0 p0_0_15 +1 p1_0_15 >= -1
+1 x_0_30_0 +0 x_0_30_1 +0 x_0_30_2 +0 x_0_30_3 -1 x_0_15_0_sb -1 x_0_15_1_sb +0 x_0_15_2_sb +1 x_0_15_3_sb +0 p0_0_15 +1 p1_0_15 >= -1
-1 x_0_30_0 -1 x_0_30_1 +0 x_0_30_2 +1 x_0_30_3 +1 x_0_15_0_sb +0 x_0_15_1_sb +0 x_0_15_2_sb +0 x_0_15_3_sb +0 p0_0_15 +1 p1_0_15 >= -1
-1 x_0_30_0 +1 x_0_30_1 +0 x_0_30_2 -1 x_0_30_3 +1 x_0_15_0_sb +0 x_0_15_1_sb +0 x_0_15_2_sb +0 x_0_15_3_sb +0 p0_0_15 +1 p1_0_15 >= -1
+0 x_0_30_0 -1 x_0_30_1 +0 x_0_30_2 -1 x_0_30_3 +0 x_0_15_0_sb -1 x_0_15_1_sb +0 x_0_15_2_sb -1 x_0_15_3_sb +0 p0_0_15 +1 p1_0_15 >= -3
+1 x_0_30_0 +1 x_0_30_1 +0 x_0_30_2 +1 x_0_30_3 +0 x_0_15_0_sb +0 x_0_15_1_sb -1 x_0_15_2_sb +0 x_0_15_3_sb +0 p0_0_15 +0 p1_0_15 >= 0
-1 x_0_30_0 +0 x_0_30_1 +1 x_0_30_2 -1 x_0_30_3 +0 x_0_15_0_sb -1 x_0_15_1_sb -1 x_0_15_2_sb +0 x_0_15_3_sb +0 p0_0_15 -1 p1_0_15 >= -4
+1 x_0_30_0 +1 x_0_30_1 +0 x_0_30_2 -1 x_0_30_3 +1 x_0_15_0_sb +1 x_0_15_1_sb +0 x_0_15_2_sb -1 x_0_15_3_sb +0 p0_0_15 -1 p1_0_15 >= -2
+1 x_0_30_0 +0 x_0_30_1 +1 x_0_30_2 +0 x_0_30_3 +0 x_0_15_0_sb +1 x_0_15_1_sb +1 x_0_15_2_sb +1 x_0_15_3_sb +0 p0_0_15 -1 p1_0_15 >= 0
+1 x_0_30_0 +0 x_0_30_1 -1 x_0_30_2 -1 x_0_30_3 -1 x_0_15_0_sb -1 x_0_15_1_sb +0 x_0_15_2_sb -1 x_0_15_3_sb +0 p0_0_15 -1 p1_0_15 >= -5
+0 x_0_30_0 +0 x_0_30_1 +1 x_0_30_2 +1 x_0_30_3 -1 x_0_15_0_sb +0 x_0_15_1_sb -1 x_0_15_2_sb +0 x_0_15_3_sb +0 p0_0_15 -1 p1_0_15 >= -2
+0 x_0_30_0 +0 x_0_30_1 +1 x_0_30_2 +0 x_0_30_3 +1 x_0_15_0_sb -1 x_0_15_1_sb +0 x_0_15_2_sb -1 x_0_15_3_sb +0 p0_0_15 +0 p1_0_15 >= -1
+0 x_0_30_0 -1 x_0_30_1 +0 x_0_30_2 -1 x_0_30_3 +0 x_0_15_0_sb +1 x_0_15_1_sb +0 x_0_15_2_sb +1 x_0_15_3_sb +0 p0_0_15 +1 p1_0_15 >= -1
+0 x_0_30_0 +1 x_0_30_1 +0 x_0_30_2 +1 x_0_30_3 +0 x_0_15_0_sb -1 x_0_15_1_sb +0 x_0_15_2_sb -1 x_0_15_3_sb +0 p0_0_15 +1 p1_0_15 >= -1
+1 x_0_30_0 -1 x_0_30_1 +1 x_0_30_2 -1 x_0_30_3 +1 x_0_15_0_sb +0 x_0_15_1_sb +0 x_0_15_2_sb +0 x_0_15_3_sb +0 p0_0_15 +0 p1_0_15 >= -1
+1 x_0_30_0 +0 x_0_30_1 +0 x_0_30_2 +0 x_0_30_3 +1 x_0_15_0_sb -1 x_0_15_1_sb +1 x_0_15_2_sb -1 x_0_15_3_sb +0 p0_0_15 +0 p1_0_15 >= -1
+0 x_0_30_0 -1 x_0_30_1 +0 x_0_30_2 -1 x_0_30_3 +1 x_0_15_0_sb -1 x_0_15_1_sb -1 x_0_15_2_sb -1 x_0_15_3_sb +0 p0_0_15 +0 p1_0_15 >= -4
+1 x_0_30_0 +0 x_0_30_1 +0 x_0_30_2 +1 x_0_30_3 +0 x_0_15_0_sb -1 x_0_15_1_sb -1 x_0_15_2_sb +1 x_0_15_3_sb +0 p0_0_15 -1 p1_0_15 >= -2
+0 x_0_30_0 +0 x_0_30_1 -1 x_0_30_2 +1 x_0_30_3 -1 x_0_15_0_sb +1 x_0_15_1_sb +0 x_0_15_2_sb -1 x_0_15_3_sb +0 p0_0_15 -1 p1_0_15 >= -3
+0 x_0_30_0 +1 x_0_30_1 +0 x_0_30_2 +1 x_0_30_3 -1 x_0_15_0_sb -1 x_0_15_1_sb +0 x_0_15_2_sb +1 x_0_15_3_sb +0 p0_0_15 -1 p1_0_15 >= -2
-1 x_0_30_0 +1 x_0_30_1 +0 x_0_30_2 -1 x_0_30_3 +0 x_0_15_0_sb +0 x_0_15_1_sb -1 x_0_15_2_sb +1 x_0_15_3_sb +0 p0_0_15 -1 p1_0_15 >= -3
-1 x_0_30_0 +0 x_0_30_1 +0 x_0_30_2 +0 x_0_30_3 -1 x_0_15_0_sb +1 x_0_15_1_sb +0 x_0_15_2_sb -1 x_0_15_3_sb +0 p0_0_15 -1 p1_0_15 >= -3
+0 x_0_30_0 +0 x_0_30_1 -1 x_0_30_2 +0 x_0_30_3 +1 x_0_15_0_sb +1 x_0_15_1_sb +0 x_0_15_2_sb +1 x_0_15_3_sb +0 p0_0_15 +0 p1_0_15 >= 0
-1 x_0_1_0 -1 x_0_0_0_sb -1 x_1_6_0 >= -2
+1 x_0_1_0 +1 x_0_0_0_sb -1 x_1_6_0 >= 0
+1 x_0_1_0 -1 x_0_0_0_sb +1 x_1_6_0 >= 0
-1 x_0_1_0 +1 x_0_0_0_sb +1 x_1_6_0 >= 0
-1 x_0_1_1 -1 x_0_0_1_sb -1 x_1_6_1 >= -2
+1 x_0_1_1 +1 x_0_0_1_sb -1 x_1_6_1 >= 0
+1 x_0_1_1 -1 x_0_0_1_sb +1 x_1_6_1 >= 0
-1 x_0_1_1 +1 x_0_0_1_sb +1 x_1_6_1 >= 0
-1 x_0_1_2 -1 x_0_0_2_sb -1 x_1_6_2 >= -2
+1 x_0_1_2 +1 x_0_0_2_sb -1 x_1_6_2 >= 0
+1 x_0_1_2 -1 x_0_0_2_sb +1 x_1_6_2 >= 0
-1 x_0_1_2 +1 x_0_0_2_sb +1 x_1_6_2 >= 0
-1 x_0_1_3 -1 x_0_0_3_sb -1 x_1_6_3 >= -2
+1 x_0_1_3 +1 x_0_0_3_sb -1 x_1_6_3 >= 0
+1 x_0_1_3 -1 x_0_0_3_sb +1 x_1_6_3 >= 0
-1 x_0_1_3 +1 x_0_0_3_sb +1 x_1_6_3 >= 0
-1 x_0_3_0 -1 x_0_1_0_sb -1 x_1_14_0 >= -2
+1 x_0_3_0 +1 x_0_1_0_sb -1 x_1_14_0 >= 0
+1 x_0_3_0 -1 x_0_1_0_sb +1 x_1_14_0 >= 0
-1 x_0_3_0 +1 x_0_1_0_sb +1 x_1_14_0 >= 0
-1 x_0_3_1 -1 x_0_1_1_sb -1 x_1_14_1 >= -2
+1 x_0_3_1 +1 x_0_1_1_sb -1 x_1_14_1 >= 0
+1 x_0_3_1 -1 x_0_1_1_sb +1 x_1_14_1 >= 0
-1 x_0_3_1 +1 x_0_1_1_sb +1 x_1_14_1 >= 0
-1 x_0_3_2 -1 x_0_1_2_sb -1 x_1_14_2 >= -2
+1 x_0_3_2 +1 x_0_1_2_sb -1 x_1_14_2 >= 0
+1 x_0_3_2 -1 x_0_1_2_sb +1 x_1_14_2 >= 0
-1 x_0_3_2 +1 x_0_1_2_sb +1 x_1_14_2 >= 0
-1 x_0_3_3 -1 x_0_1_3_sb -1 x_1_14_3 >= -2
+1 x_0_3_3 +1 x_0_1_3_sb -1 x_1_14_3 >= 0
+1 x_0_3_3 -1 x_0_1_3_sb +1 x_1_14_3 >= 0
-1 x_0_3_3 +1 x_0_1_3_sb +1 x_1_14_3 >= 0
-1 x_0_5_0 -1 x_0_2_0_sb -1 x_1_12_0 >= -2
+1 x_0_5_0 +1 x_0_2_0_sb -1 x_1_12_0 >= 0
+1 x_0_5_0 -1 x_0_2_0_sb +1 x_1_12_0 >= 0
-1 x_0_5_0 +1 x_0_2_0_sb +1 x_1_12_0 >= 0
-1 x_0_5_1 -1 x_0_2_1_sb -1 x_1_12_1 >= -2
+1 x_0_5_1 +1 x_0_2_1_sb -1 x_1_12_1 >= 0
+1 x_0_5_1 -1 x_0_2_1_sb +1 x_1_12_1 >= 0
-1 x_0_5_1 +1 x_0_2_1_sb +1 x_1_12_1 >= 0
-1 x_0_5_2 -1 x_0_2_2_sb -1 x_1_12_2 >= -2
+1 x_0_5_2 +1 x_0_2_2_sb -1 x_1_12_2 >= 0
+1 x_0_5_2 -1 x_0_2_2_sb +1 x_1_12_2 >= 0
-1 x_0_5_2 +1 x_0_2_2_sb +1 x_1_12_2 >= 0
-1 x_0_5_3 -1 x_0_2_3_sb -1 x_1_12_3 >= -2
+1 x_0_5_3 +1 x_0_2_3_sb -1 x_1_12_3 >= 0
+1 x_0_5_3 -1 x_0_2_3_sb +1 x_1_12_3 >= 0
-1 x_0_5_3 +1 x_0_2_3_sb +1 x_1_12_3 >= 0
-1 x_0_7_0 -1 x_0_3_0_sb -1 x_1_8_0 >= -2
+1 x_0_7_0 +1 x_0_3_0_sb -1 x_1_8_0 >= 0
+1 x_0_7_0 -1 x_0_3_0_sb +1 x_1_8_0 >= 0
-1 x_0_7_0 +1 x_0_3_0_sb +1 x_1_8_0 >= 0
-1 x_0_7_1 -1 x_0_3_1_sb -1 x_1_8_1 >= -2
+1 x_0_7_1 +1 x_0_3_1_sb -1 x_1_8_1 >= 0
+1 x_0_7_1 -1 x_0_3_1_sb +1 x_1_8_1 >= 0
-1 x_0_7_1 +1 x_0_3_1_sb +1 x_1_8_1 >= 0
-1 x_0_7_2 -1 x_0_3_2_sb -1 x_1_8_2 >= -2
+1 x_0_7_2 +1 x_0_3_2_sb -1 x_1_8_2 >= 0
+1 x_0_7_2 -1 x_0_3_2_sb +1 x_1_8_2 >= 0
-1 x_0_7_2 +1 x_0_3_2_sb +1 x_1_8_2 >= 0
-1 x_0_7_3 -1 x_0_3_3_sb -1 x_1_8_3 >= -2
+1 x_0_7_3 +1 x_0_3_3_sb -1 x_1_8_3 >= 0
+1 x_0_7_3 -1 x_0_3_3_sb +1 x_1_8_3 >= 0
-1 x_0_7_3 +1 x_0_3_3_sb +1 x_1_8_3 >= 0
-1 x_0_9_0 -1 x_0_4_0_sb -1 x_1_2_0 >= -2
+1 x_0_9_0 +1 x_0_4_0_sb -1 x_1_2_0 >= 0
+1 x_0_9_0 -1 x_0_4_0_sb +1 x_1_2_0 >= 0
-1 x_0_9_0 +1 x_0_4_0_sb +1 x_1_2_0 >= 0
-1 x_0_9_1 -1 x_0_4_1_sb -1 x_1_2_1 >= -2
+1 x_0_9_1 +1 x_0_4_1_sb -1 x_1_2_1 >= 0
+1 x_0_9_1 -1 x_0_4_1_sb +1 x_1_2_1 >= 0
-1 x_0_9_1 +1 x_0_4_1_sb +1 x_1_2_1 >= 0
-1 x_0_9_2 -1 x_0_4_2_sb -1 x_1_2_2 >= -2
+1 x_0_9_2 +1 x_0_4_2_sb -1 x_1_2_2 >= 0
+1 x_0_9_2 -1 x_0_4_2_sb +1 x_1_2_2 >= 0
-1 x_0_9_2 +1 x_0_4_2_sb +1 x_1_2_2 >= 0
-1 x_0_9_3 -1 x_0_4_3_sb -1 x_1_2_3 >= -2
+1 x_0_9_3 +1 x_0_4_3_sb -1 x_1_2_3 >= 0
+1 x_0_9_3 -1 x_0_4_3_sb +1 x_1_2_3 >= 0
-1 x_0_9_3 +1 x_0_4_3_sb +1 x_1_2_3 >= 0
-1 x_0_11_0 -1 x_0_5_0_sb -1 x_1_0_0 >= -2
+1 x_0_11_0 +1 x_0_5_0_sb -1 x_1_0_0 >= 0
+1 x_0_11_0 -1 x_0_5_0_sb +1 x_1_0_0 >= 0
-1 x_0_11_0 +1 x_0_5_0_sb +1 x_1_0_0 >= 0
-1 x_0_11_1 -1 x_0_5_1_sb -1 x_1_0_1 >= -2
+1 x_0_11_1 +1 x_0_5_1_sb -1 x_1_0_1 >= 0
+1 x_0_11_1 -1 x_0_5_1_sb +1 x_1_0_1 >= 0
-1 x_0_11_1 +1 x_0_5_1_sb +1 x_1_0_1 >= 0
-1 x_0_11_2 -1 x_0_5_2_sb -1 x_1_0_2 >= -2
+1 x_0_11_2 +1 x_0_5_2_sb -1 x_1_0_2 >= 0
+1 x_0_11_2 -1 x_0_5_2_sb +1 x_1_0_2 >= 0
-1 x_0_11_2 +1 x_0_5_2_sb +1 x_1_0_2 >= 0
-1 x_0_11_3 -1 x_0_5_3_sb -1 x_1_0_3 >= -2
+1 x_0_11_3 +1 x_0_5_3_sb -1 x_1_0_3 >= 0
+1 x_0_11_3 -1 x_0_5_3_sb +1 x_1_0_3 >= 0
-1 x_0_11_3 +1 x_0_5_3_sb +1 x_1_0_3 >= 0
-1 x_0_13_0 -1 x_0_6_0_sb -1 x_1_4_0 >= -2
+1 x_0_13_0 +1 x_0_6_0_sb -1 x_1_4_0 >= 0
+1 x_0_13_0 -1 x_0_6_0_sb +1 x_1_4_0 >= 0
-1 x_0_13_0 +1 x_0_6_0_sb +1 x_1_4_0 >= 0
-1 x_0_13_1 -1 x_0_6_1_sb -1 x_1_4_1 >= -2
+1 x_0_13_1 +1 x_0_6_1_sb -1 x_1_4_1 >= 0
+1 x_0_13_1 -1 x_0_6_1_sb +1 x_1_4_1 >= 0
-1 x_0_13_1 +1 x_0_6_1_sb +1 x_1_4_1 >= 0
-1 x_0_13_2 -1 x_0_6_2_sb -1 x_1_4_2 >= -2
+1 x_0_13_2 +1 x_0_6_2_sb -1 x_1_4_2 >= 0
+1 x_0_13_2 -1 x_0_6_2_sb +1 x_1_4_2 >= 0
-1 x_0_13_2 +1 x_0_6_2_sb +1 x_1_4_2 >= 0
-1 x_0_13_3 -1 x_0_6_3_sb -1 x_1_4_3 >= -2
+1 x_0_13_3 +1 x_0_6_3_sb -1 x_1_4_3 >= 0
+1 x_0_13_3 -1 x_0_6_3_sb +1 x_1_4_3 >= 0
-1 x_0_13_3 +1 x_0_6_3_sb +1 x_1_4_3 >= 0
-1 x_0_15_0 -1 x_0_7_0_sb -1 x_1_10_0 >= -2
+1 x_0_15_0 +1 x_0_7_0_sb -1 x_1_10_0 >= 0
+1 x_0_15_0 -1 x_0_7_0_sb +1 x_1_10_0 >= 0
-1 x_0_15_0 +1 x_0_7_0_sb +1 x_1_10_0 >= 0
-1 x_0_15_1 -1 x_0_7_1_sb -1 x_1_10_1 >= -2
+1 x_0_15_1 +1 x_0_7_1_sb -1 x_1_10_1 >= 0
+1 x_0_15_1 -1 x_0_7_1_sb +1 x_1_10_1 >= 0
-1 x_0_15_1 +1 x_0_7_1_sb +1 x_1_10_1 >= 0
-1 x_0_15_2 -1 x_0_7_2_sb -1 x_1_10_2 >= -2
+1 x_0_15_2 +1 x_0_7_2_sb -1 x_1_10_2 >= 0
+1 x_0_15_2 -1 x_0_7_2_sb +1 x_1_10_2 >= 0
-1 x_0_15_2 +1 x_0_7_2_sb +1 x_1_10_2 >= 0
-1 x_0_15_3 -1 x_0_7_3_sb -1 x_1_10_3 >= -2
+1 x_0_15_3 +1 x_0_7_3_sb -1 x_1_10_3 >= 0
+1 x_0_15_3 -1 x_0_7_3_sb +1 x_1_10_3 >= 0
-1 x_0_15_3 +1 x_0_7_3_sb +1 x_1_10_3 >= 0
-1 x_0_17_0 -1 x_0_8_0_sb -1 x_1_22_0 >= -2
+1 x_0_17_0 +1 x_0_8_0_sb -1 x_1_22_0 >= 0
+1 x_0_17_0 -1 x_0_8_0_sb +1 x_1_22_0 >= 0
-1 x_0_17_0 +1 x_0_8_0_sb +1 x_1_22_0 >= 0
-1 x_0_17_1 -1 x_0_8_1_sb -1 x_1_22_1 >= -2
+1 x_0_17_1 +1 x_0_8_1_sb -1 x_1_22_1 >= 0
+1 x_0_17_1 -1 x_0_8_1_sb +1 x_1_22_1 >= 0
-1 x_0_17_1 +1 x_0_8_1_sb +1 x_1_22_1 >= 0
-1 x_0_17_2 -1 x_0_8_2_sb -1 x_1_22_2 >= -2
+1 x_0_17_2 +1 x_0_8_2_sb -1 x_1_22_2 >= 0
+1 x_0_17_2 -1 x_0_8_2_sb +1 x_1_22_2 >= 0
-1 x_0_17_2 +1 x_0_8_2_sb +1 x_1_22_2 >= 0
-1 x_0_17_3 -1 x_0_8_3_sb -1 x_1_22_3 >= -2
+1 x_0_17_3 +1 x_0_8_3_sb -1 x_1_22_3 >= 0
+1 x_0_17_3 -1 x_0_8_3_sb +1 x_1_22_3 >= 0
-1 x_0_17_3 +1 x_0_8_3_sb +1 x_1_22_3 >= 0
-1 x_0_19_0 -1 x_0_9_0_sb -1 x_1_30_0 >= -2
+1 x_0_19_0 +1 x_0_9_0_sb -1 x_1_30_0 >= 0
+1 x_0_19_0 -1 x_0_9_0_sb +1 x_1_30_0 >= 0
-1 x_0_19_0 +1 x_0_9_0_sb +1 x_1_30_0 >= 0
-1 x_0_19_1 -1 x_0_9_1_sb -1 x_1_30_1 >= -2
+1 x_0_19_1 +1 x_0_9_1_sb -1 x_1_30_1 >= 0
+1 x_0_19_1 -1 x_0_9_1_sb +1 x_1_30_1 >= 0
-1 x_0_19_1 +1 x_0_9_1_sb +1 x_1_30_1 >= 0
-1 x_0_19_2 -1 x_0_9_2_sb -1 x_1_30_2 >= -2
+1 x_0_19_2 +1 x_0_9_2_sb -1 x_1_30_2 >= 0
+1 x_0_19_2 -1 x_0_9_2_sb +1 x_1_30_2 >= 0
-1 x_0_19_2 +1 x_0_9_2_sb +1 x_1_30_2 >= 0
-1 x_0_19_3 -1 x_0_9_3_sb -1 x_1_30_3 >= -2
+1 x_0_19_3 +1 x_0_9_3_sb -1 x_1_30_3 >= 0
+1 x_0_19_3 -1 x_0_9_3_sb +1 x_1_30_3 >= 0
-1 x_0_19_3 +1 x_0_9_3_sb +1 x_1_30_3 >= 0
-1 x_0_21_0 -1 x_0_10_0_sb -1 x_1_28_0 >= -2
+1 x_0_21_0 +1 x_0_10_0_sb -1 x_1_28_0 >= 0
+1 x_0_21_0 -1 x_0_10_0_sb +1 x_1_28_0 >= 0
-1 x_0_21_0 +1 x_0_10_0_sb +1 x_1_28_0 >= 0
-1 x_0_21_1 -1 x_0_10_1_sb -1 x_1_28_1 >= -2
+1 x_0_21_1 +1 x_0_10_1_sb -1 x_1_28_1 >= 0
+1 x_0_21_1 -1 x_0_10_1_sb +1 x_1_28_1 >= 0
-1 x_0_21_1 +1 x_0_10_1_sb +1 x_1_28_1 >= 0
-1 x_0_21_2 -1 x_0_10_2_sb -1 x_1_28_2 >= -2
+1 x_0_21_2 +1 x_0_10_2_sb -1 x_1_28_2 >= 0
+1 x_0_21_2 -1 x_0_10_2_sb +1 x_1_28_2 >= 0
-1 x_0_21_2 +1 x_0_10_2_sb +1 x_1_28_2 >= 0
-1 x_0_21_3 -1 x_0_10_3_sb -1 x_1_28_3 >= -2
+1 x_0_21_3 +1 x_0_10_3_sb -1 x_1_28_3 >= 0
+1 x_0_21_3 -1 x_0_10_3_sb +1 x_1_28_3 >= 0
-1 x_0_21_3 +1 x_0_10_3_sb +1 x_1_28_3 >= 0
-1 x_0_23_0 -1 x_0_11_0_sb -1 x_1_24_0 >= -2
+1 x_0_23_0 +1 x_0_11_0_sb -1 x_1_24_0 >= 0
+1 x_0_23_0 -1 x_0_11_0_sb +1 x_1_24_0 >= 0
-1 x_0_23_0 +1 x_0_11_0_sb +1 x_1_24_0 >= 0
-1 x_0_23_1 -1 x_0_11_1_sb -1 x_1_24_1 >= -2
+1 x_0_23_1 +1 x_0_11_1_sb -1 x_1_24_1 >= 0
+1 x_0_23_1 -1 x_0_11_1_sb +1 x_1_24_1 >= 0
-1 x_0_23_1 +1 x_0_11_1_sb +1 x_1_24_1 >= 0
-1 x_0_23_2 -1 x_0_11_2_sb -1 x_1_24_2 >= -2
+1 x_0_23_2 +1 x_0_11_2_sb -1 x_1_24_2 >= 0
+1 x_0_23_2 -1 x_0_11_2_sb +1 x_1_24_2 >= 0
-1 x_0_23_2 +1 x_0_11_2_sb +1 x_1_24_2 >= 0
-1 x_0_23_3 -1 x_0_11_3_sb -1 x_1_24_3 >= -2
+1 x_0_23_3 +1 x_0_11_3_sb -1 x_1_24_3 >= 0
+1 x_0_23_3 -1 x_0_11_3_sb +1 x_1_24_3 >= 0
-1 x_0_23_3 +1 x_0_11_3_sb +1 x_1_24_3 >= 0
-1 x_0_25_0 -1 x_0_12_0_sb -1 x_1_18_0 >= -2
+1 x_0_25_0 +1 x_0_12_0_sb -1 x_1_18_0 >= 0
+1 x_0_25_0 -1 x_0_12_0_sb +1 x_1_18_0 >= 0
-1 x_0_25_0 +1 x_0_12_0_sb +1 x_1_18_0 >= 0
-1 x_0_25_1 -1 x_0_12_1_sb -1 x_1_18_1 >= -2
+1 x_0_25_1 +1 x_0_12_1_sb -1 x_1_18_1 >= 0
+1 x_0_25_1 -1 x_0_12_1_sb +1 x_1_18_1 >= 0
-1 x_0_25_1 +1 x_0_12_1_sb +1 x_1_18_1 >= 0
-1 x_0_25_2 -1 x_0_12_2_sb -1 x_1_18_2 >= -2
+1 x_0_25_2 +1 x_0_12_2_sb -1 x_1_18_2 >= 0
+1 x_0_25_2 -1 x_0_12_2_sb +1 x_1_18_2 >= 0
-1 x_0_25_2 +1 x_0_12_2_sb +1 x_1_18_2 >= 0
-1 x_0_25_3 -1 x_0_12_3_sb -1 x_1_18_3 >= -2
+1 x_0_25_3 +1 x_0_12_3_sb -1 x_1_18_3 >= 0
+1 x_0_25_3 -1 x_0_12_3_sb +1 x_1_18_3 >= 0
-1 x_0_25_3 +1 x_0_12_3_sb +1 x_1_18_3 >= 0
-1 x_0_27_0 -1 x_0_13_0_sb -1 x_1_16_0 >= -2
+1 x_0_27_0 +1 x_0_13_0_sb -1 x_1_16_0 >= 0
+1 x_0_27_0 -1 x_0_13_0_sb +1 x_1_16_0 >= 0
-1 x_0_27_0 +1 x_0_13_0_sb +1 x_1_16_0 >= 0
-1 x_0_27_1 -1 x_0_13_1_sb -1 x_1_16_1 >= -2
+1 x_0_27_1 +1 x_0_13_1_sb -1 x_1_16_1 >= 0
+1 x_0_27_1 -1 x_0_13_1_sb +1 x_1_16_1 >= 0
-1 x_0_27_1 +1 x_0_13_1_sb +1 x_1_16_1 >= 0
-1 x_0_27_2 -1 x_0_13_2_sb -1 x_1_16_2 >= -2
+1 x_0_27_2 +1 x_0_13_2_sb -1 x_1_16_2 >= 0
+1 x_0_27_2 -1 x_0_13_2_sb +1 x_1_16_2 >= 0
-1 x_0_27_2 +1 x_0_13_2_sb +1 x_1_16_2 >= 0
-1 x_0_27_3 -1 x_0_13_3_sb -1 x_1_16_3 >= -2
+1 x_0_27_3 +1 x_0_13_3_sb -1 x_1_16_3 >= 0
+1 x_0_27_3 -1 x_0_13_3_sb +1 x_1_16_3 >= 0
-1 x_0_27_3 +1 x_0_13_3_sb +1 x_1_16_3 >= 0
-1 x_0_29_0 -1 x_0_14_0_sb -1 x_1_20_0 >= -2
+1 x_0_29_0 +1 x_0_14_0_sb -1 x_1_20_0 >= 0
+1 x_0_29_0 -1 x_0_14_0_sb +1 x_1_20_0 >= 0
-1 x_0_29_0 +1 x_0_14_0_sb +1 x_1_20_0 >= 0
-1 x_0_29_1 -1 x_0_14_1_sb -1 x_1_20_1 >= -2
+1 x_0_29_1 +1 x_0_14_1_sb -1 x_1_20_1 >= 0
+1 x_0_29_1 -1 x_0_14_1_sb +1 x_1_20_1 >= 0
-1 x_0_29_1 +1 x_0_14_1_sb +1 x_1_20_1 >= 0
-1 x_0_29_2 -1 x_0_14_2_sb -1 x_1_20_2 >= -2
+1 x_0_29_2 +1 x_0_14_2_sb -1 x_1_20_2 >= 0
+1 x_0_29_2 -1 x_0_14_2_sb +1 x_1_20_2 >= 0
-1 x_0_29_2 +1 x_0_14_2_sb +1 x_1_20_2 >= 0
-1 x_0_29_3 -1 x_0_14_3_sb -1 x_1_20_3 >= -2
+1 x_0_29_3 +1 x_0_14_3_sb -1 x_1_20_3 >= 0
+1 x_0_29_3 -1 x_0_14_3_sb +1 x_1_20_3 >= 0
-1 x_0_29_3 +1 x_0_14_3_sb +1 x_1_20_3 >= 0
-1 x_0_31_0 -1 x_0_15_0_sb -1 x_1_26_0 >= -2
+1 x_0_31_0 +1 x_0_15_0_sb -1 x_1_26_0 >= 0
+1 x_0_31_0 -1 x_0_15_0_sb +1 x_1_26_0 >= 0
-1 x_0_31_0 +1 x_0_15_0_sb +1 x_1_26_0 >= 0
-1 x_0_31_1 -1 x_0_15_1_sb -1 x_1_26_1 >= -2
+1 x_0_31_1 +1 x_0_15_1_sb -1 x_1_26_1 >= 0
+1 x_0_31_1 -1 x_0_15_1_sb +1 x_1_26_1 >= 0
-1 x_0_31_1 +1 x_0_15_1_sb +1 x_1_26_1 >= 0
-1 x_0_31_2 -1 x_0_15_2_sb -1 x_1_26_2 >= -2
+1 x_0_31_2 +1 x_0_15_2_sb -1 x_1_26_2 >= 0
+1 x_0_31_2 -1 x_0_15_2_sb +1 x_1_26_2 >= 0
-1 x_0_31_2 +1 x_0_15_2_sb +1 x_1_26_2 >= 0
-1 x_0_31_3 -1 x_0_15_3_sb -1 x_1_26_3 >= -2
+1 x_0_31_3 +1 x_0_15_3_sb -1 x_1_26_3 >= 0
+1 x_0_31_3 -1 x_0_15_3_sb +1 x_1_26_3 >= 0
-1 x_0_31_3 +1 x_0_15_3_sb +1 x_1_26_3 >= 0
x_1_31_0 - x_0_0_0 = 0
x_1_31_1 - x_0_0_1 = 0
x_1_31_2 - x_0_0_2 = 0
x_1_31_3 - x_0_0_3 = 0
x_1_29_0 - x_0_2_0 = 0
x_1_29_1 - x_0_2_1 = 0
x_1_29_2 - x_0_2_2 = 0
x_1_29_3 - x_0_2_3 = 0
x_1_1_0 - x_0_4_0 = 0
x_1_1_1 - x_0_4_1 = 0
x_1_1_2 - x_0_4_2 = 0
x_1_1_3 - x_0_4_3 = 0
x_1_21_0 - x_0_6_0 = 0
x_1_21_1 - x_0_6_1 = 0
x_1_21_2 - x_0_6_2 = 0
x_1_21_3 - x_0_6_3 = 0
x_1_27_0 - x_0_8_0 = 0
x_1_27_1 - x_0_8_1 = 0
x_1_27_2 - x_0_8_2 = 0
x_1_27_3 - x_0_8_3 = 0
x_1_3_0 - x_0_10_0 = 0
x_1_3_1 - x_0_10_1 = 0
x_1_3_2 - x_0_10_2 = 0
x_1_3_3 - x_0_10_3 = 0
x_1_25_0 - x_0_12_0 = 0
x_1_25_1 - x_0_12_1 = 0
x_1_25_2 - x_0_12_2 = 0
x_1_25_3 - x_0_12_3 = 0
x_1_23_0 - x_0_14_0 = 0
x_1_23_1 - x_0_14_1 = 0
x_1_23_2 - x_0_14_2 = 0
x_1_23_3 - x_0_14_3 = 0
x_1_15_0 - x_0_16_0 = 0
x_1_15_1 - x_0_16_1 = 0
x_1_15_2 - x_0_16_2 = 0
x_1_15_3 - x_0_16_3 = 0
x_1_13_0 - x_0_18_0 = 0
x_1_13_1 - x_0_18_1 = 0
x_1_13_2 - x_0_18_2 = 0
x_1_13_3 - x_0_18_3 = 0
x_1_17_0 - x_0_20_0 = 0
x_1_17_1 - x_0_20_1 = 0
x_1_17_2 - x_0_20_2 = 0
x_1_17_3 - x_0_20_3 = 0
x_1_5_0 - x_0_22_0 = 0
x_1_5_1 - x_0_22_1 = 0
x_1_5_2 - x_0_22_2 = 0
x_1_5_3 - x_0_22_3 = 0
x_1_11_0 - x_0_24_0 = 0
x_1_11_1 - x_0_24_1 = 0
x_1_11_2 - x_0_24_2 = 0
x_1_11_3 - x_0_24_3 = 0
x_1_19_0 - x_0_26_0 = 0
x_1_19_1 - x_0_26_1 = 0
x_1_19_2 - x_0_26_2 = 0
x_1_19_3 - x_0_26_3 = 0
x_1_9_0 - x_0_28_0 = 0
x_1_9_1 - x_0_28_1 = 0
x_1_9_2 - x_0_28_2 = 0
x_1_9_3 - x_0_28_3 = 0
x_1_7_0 - x_0_30_0 = 0
x_1_7_1 - x_0_30_1 = 0
x_1_7_2 - x_0_30_2 = 0
x_1_7_3 - x_0_30_3 = 0
+0 x_1_0_0 +0 x_1_0_1 +0 x_1_0_2 +0 x_1_0_3 +0 x_1_0_0_sb +0 x_1_0_1_sb +0 x_1_0_2_sb +0 x_1_0_3_sb -1 p0_1_0 -1 p1_1_0 >= -1
+0 x_1_0_0 +0 x_1_0_1 +0 x_1_0_2 +0 x_1_0_3 +0 x_1_0_0_sb +0 x_1_0_1_sb +0 x_1_0_2_sb -1 x_1_0_3_sb +1 p0_1_0 +1 p1_1_0 >= 0
+0 x_1_0_0 +0 x_1_0_1 +0 x_1_0_2 +0 x_1_0_3 +0 x_1_0_0_sb -1 x_1_0_1_sb +0 x_1_0_2_sb +0 x_1_0_3_sb +1 p0_1_0 +1 p1_1_0 >= 0
+0 x_1_0_0 +0 x_1_0_1 +0 x_1_0_2 +0 x_1_0_3 -1 x_1_0_0_sb +0 x_1_0_1_sb +0 x_1_0_2_sb +0 x_1_0_3_sb +1 p0_1_0 +1 p1_1_0 >= 0
+0 x_1_0_0 +0 x_1_0_1 +0 x_1_0_2 +0 x_1_0_3 +1 x_1_0_0_sb +1 x_1_0_1_sb +1 x_1_0_2_sb +1 x_1_0_3_sb +0 p0_1_0 -1 p1_1_0 >= 0
+0 x_1_0_0 +0 x_1_0_1 +0 x_1_0_2 -1 x_1_0_3 +1 x_1_0_0_sb +1 x_1_0_1_sb +0 x_1_0_2_sb +1 x_1_0_3_sb +0 p0_1_0 +1 p1_1_0 >= 0
-1 x_1_0_0 +0 x_1_0_1 -1 x_1_0_2 +0 x_1_0_3 +1 x_1_0_0_sb +0 x_1_0_1_sb +0 x_1_0_2_sb +1 x_1_0_3_sb +0 p0_1_0 -1 p1_1_0 >= -2
+1 x_1_0_0 +0 x_1_0_1 +1 x_1_0_2 +0 x_1_0_3 +1 x_1_0_0_sb +0 x_1_0_1_sb +1 x_1_0_2_sb +0 x_1_0_3_sb +0 p0_1_0 -1 p1_1_0 >= 0
+0 x_1_0_0 +0 x_1_0_1 +0 x_1_0_2 +1 x_1_0_3 +0 x_1_0_0_sb +1 x_1_0_1_sb -1 x_1_0_2_sb -1 x_1_0_3_sb +0 p0_1_0 -1 p1_1_0 >= -2
-1 x_1_0_0 +0 x_1_0_1 +0 x_1_0_2 -1 x_1_0_3 -1 x_1_0_0_sb +0 x_1_0_1_sb +0 x_1_0_2_sb +1 x_1_0_3_sb +0 p0_1_0 -1 p1_1_0 >= -3
+0 x_1_0_0 +0 x_1_0_1 +0 x_1_0_2 +1 x_1_0_3 -1 x_1_0_0_sb -1 x_1_0_1_sb -1 x_1_0_2_sb +0 x_1_0_3_sb +0 p0_1_0 -1 p1_1_0 >= -3
+1 x_1_0_0 +1 x_1_0_1 +0 x_1_0_2 +1 x_1_0_3 +0 x_1_0_0_sb +0 x_1_0_1_sb +0 x_1_0_2_sb +0 x_1_0_3_sb -1 p0_1_0 +0 p1_1_0 >= 0
+0 x_1_0_0 +0 x_1_0_1 +1 x_1_0_2 +1 x_1_0_3 +0 x_1_0_0_sb -1 x_1_0_1_sb +1 x_1_0_2_sb +0 x_1_0_3_sb +0 p0_1_0 -1 p1_1_0 >= -1
+0 x_1_0_0 +1 x_1_0_1 +0 x_1_0_2 -1 x_1_0_3 -1 x_1_0_0_sb +0 x_1_0_1_sb -1 x_1_0_2_sb +0 x_1_0_3_sb +0 p0_1_0 -1 p1_1_0 >= -3
+0 x_1_0_0 +1 x_1_0_1 +1 x_1_0_2 +0 x_1_0_3 +0 x_1_0_0_sb +0 x_1_0_1_sb +1 x_1_0_2_sb -1 x_1_0_3_sb +0 p0_1_0 -1 p1_1_0 >= -1
-1 x_1_0_0 +0 x_1_0_1 -1 x_1_0_2 +0 x_1_0_3 -1 x_1_0_0_sb +0 x_1_0_1_sb +1 x_1_0_2_sb +0 x_1_0_3_sb +0 p0_1_0 -1 p1_1_0 >= -3
+0 x_1_0_0 -1 x_1_0_1 -1 x_1_0_2 +0 x_1_0_3 +0 x_1_0_0_sb +1 x_1_0_1_sb +0 x_1_0_2_sb +1 x_1_0_3_sb +0 p0_1_0 -1 p1_1_0 >= -2
+0 x_1_0_0 -1 x_1_0_1 +0 x_1_0_2 +0 x_1_0_3 +1 x_1_0_0_sb +1 x_1_0_1_sb +0 x_1_0_2_sb +1 x_1_0_3_sb +0 p0_1_0 +1 p1_1_0 >= 0
-1 x_1_0_0 -1 x_1_0_1 +0 x_1_0_2 +1 x_1_0_3 +0 x_1_0_0_sb +1 x_1_0_1_sb +0 x_1_0_2_sb +1 x_1_0_3_sb +0 p0_1_0 -1 p1_1_0 >= -2
+0 x_1_0_0 -1 x_1_0_1 +0 x_1_0_2 +0 x_1_0_3 +1 x_1_0_0_sb +0 x_1_0_1_sb +1 x_1_0_2_sb +1 x_1_0_3_sb +0 p0_1_0 -1 p1_1_0 >= -1
-1 x_1_0_0 +0 x_1_0_1 -1 x_1_0_2 +0 x_1_0_3 +1 x_1_0_0_sb +1 x_1_0_1_sb +0 x_1_0_2_sb +0 x_1_0_3_sb +0 p0_1_0 -1 p1_1_0 >= -2
+0 x_1_0_0 +1 x_1_0_1 -1 x_1_0_2 -1 x_1_0_3 +0 x_1_0_0_sb +0 x_1_0_1_sb +0 x_1_0_2_sb +1 x_1_0_3_sb +0 p0_1_0 -1 p1_1_0 >= -2
-1 x_1_0_0 -1 x_1_0_1 +0 x_1_0_2 -1 x_1_0_3 +0 x_1_0_0_sb +1 x_1_0_1_sb +0 x_1_0_2_sb -1 x_1_0_3_sb +0 p0_1_0 -1 p1_1_0 >= -4
-1 x_1_0_0 +1 x_1_0_1 +0 x_1_0_2 +1 x_1_0_3 +0 x_1_0_0_sb +1 x_1_0_1_sb +0 x_1_0_2_sb +1 x_1_0_3_sb +0 p0_1_0 +1 p1_1_0 >= 0
+0 x_1_0_0 +0 x_1_0_1 +0 x_1_0_2 +0 x_1_0_3 +1 x_1_0_0_sb -1 x_1_0_1_sb +0 x_1_0_2_sb -1 x_1_0_3_sb +0 p0_1_0 +1 p1_1_0 >= -1
+1 x_1_0_0 +0 x_1_0_1 +1 x_1_0_2 +0 x_1_0_3 +1 x_1_0_0_sb -1 x_1_0_1_sb +0 x_1_0_2_sb +0 x_1_0_3_sb +0 p0_1_0 -1 p1_1_0 >= -1
+0 x_1_0_0 +1 x_1_0_1 +0 x_1_0_2 +1 x_1_0_3 +0 x_1_0_0_sb -1 x_1_0_1_sb -1 x_1_0_2_sb +0 x_1_0_3_sb +0 p0_1_0 -1 p1_1_0 >= -2
+1 x_1_0_0 -1 x_1_0_1 +0 x_1_0_2 -1 x_1_0_3 +0 x_1_0_0_sb +0 x_1_0_1_sb +1 x_1_0_2_sb +0 x_1_0_3_sb +0 p0_1_0 +0 p1_1_0 >= -1
+1 x_1_0_0 -1 x_1_0_1 -1 x_1_0_2 +0 x_1_0_3 +0 x_1_0_0_sb +0 x_1_0_1_sb +1 x_1_0_2_sb -1 x_1_0_3_sb +0 p0_1_0 -1 p1_1_0 >= -3
+1 x_1_0_0 -1 x_1_0_1 +0 x_1_0_2 -1 x_1_0_3 +0 x_1_0_0_sb +0 x_1_0_1_sb +0 x_1_0_2_sb +0 x_1_0_3_sb +0 p0_1_0 +1 p1_1_0 >= -1
+1 x_1_0_0 +0 x_1_0_1 +0 x_1_0_2 +0 x_1_0_3 -1 x_1_0_0_sb +1 x_1_0_1_sb +0 x_1_0_2_sb -1 x_1_0_3_sb +0 p0_1_0 +1 p1_1_0 >= -1
+1 x_1_0_0 +0 x_1_0_1 +0 x_1_0_2 +0 x_1_0_3 -1 x_1_0_0_sb -1 x_1_0_1_sb +0 x_1_0_2_sb +1 x_1_0_3_sb +0 p0_1_0 +1 p1_1_0 >= -1
-1 x_1_0_0 -1 x_1_0_1 +0 x_1_0_2 +1 x_1_0_3 +1 x_1_0_0_sb +0 x_1_0_1_sb +0 x_1_0_2_sb +0 x_1_0_3_sb +0 p0_1_0 +1 p1_1_0 >= -1
-1 x_1_0_0 +1 x_1_0_1 +0 x_1_0_2 -1 x_1_0_3 +1 x_1_0_0_sb +0 x_1_0_1_sb +0 x_1_0_2_sb +0 x_1_0_3_sb +0 p0_1_0 +1 p1_1_0 >= -1
+0 x_1_0_0 -1 x_1_0_1 +0 x_1_0_2 -1 x_1_0_3 +0 x_1_0_0_sb -1 x_1_0_1_sb +0 x_1_0_2_sb -1 x_1_0_3_sb +0 p0_1_0 +1 p1_1_0 >= -3
+1 x_1_0_0 +1 x_1_0_1 +0 x_1_0_2 +1 x_1_0_3 +0 x_1_0_0_sb +0 x_1_0_1_sb -1 x_1_0_2_sb +0 x_1_0_3_sb +0 p0_1_0 +0 p1_1_0 >= 0
-1 x_1_0_0 +0 x_1_0_1 +1 x_1_0_2 -1 x_1_0_3 +0 x_1_0_0_sb -1 x_1_0_1_sb -1 x_1_0_2_sb +0 x_1_0_3_sb +0 p0_1_0 -1 p1_1_0 >= -4
+1 x_1_0_0 +1 x_1_0_1 +0 x_1_0_2 -1 x_1_0_3 +1 x_1_0_0_sb +1 x_1_0_1_sb +0 x_1_0_2_sb -1 x_1_0_3_sb +0 p0_1_0 -1 p1_1_0 >= -2
+1 x_1_0_0 +0 x_1_0_1 +1 x_1_0_2 +0 x_1_0_3 +0 x_1_0_0_sb +1 x_1_0_1_sb +1 x_1_0_2_sb +1 x_1_0_3_sb +0 p0_1_0 -1 p1_1_0 >= 0
+1 x_1_0_0 +0 x_1_0_1 -1 x_1_0_2 -1 x_1_0_3 -1 x_1_0_0_sb -1 x_1_0_1_sb +0 x_1_0_2_sb -1 x_1_0_3_sb +0 p0_1_0 -1 p1_1_0 >= -5
+0 x_1_0_0 +0 x_1_0_1 +1 x_1_0_2 +1 x_1_0_3 -1 x_1_0_0_sb +0 x_1_0_1_sb -1 x_1_0_2_sb +0 x_1_0_3_sb +0 p0_1_0 -1 p1_1_0 >= -2
+0 x_1_0_0 +0 x_1_0_1 +1 x_1_0_2 +0 x_1_0_3 +1 x_1_0_0_sb -1 x_1_0_1_sb +0 x_1_0_2_sb -1 x_1_0_3_sb +0 p0_1_0 +0 p1_1_0 >= -1
+0 x_1_0_0 -1 x_1_0_1 +0 x_1_0_2 -1 x_1_0_3 +0 x_1_0_0_sb +1 x_1_0_1_sb +0 x_1_0_2_sb +1 x_1_0_3_sb +0 p0_1_0 +1 p1_1_0 >= -1
+0 x_1_0_0 +1 x_1_0_1 +0 x_1_0_2 +1 x_1_0_3 +0 x_1_0_0_sb -1 x_1_0_1_sb +0 x_1_0_2_sb -1 x_1_0_3_sb +0 p0_1_0 +1 p1_1_0 >= -1
+1 x_1_0_0 -1 x_1_0_1 +1 x_1_0_2 -1 x_1_0_3 +1 x_1_0_0_sb +0 x_1_0_1_sb +0 x_1_0_2_sb +0 x_1_0_3_sb +0 p0_1_0 +0 p1_1_0 >= -1
+1 x_1_0_0 +0 x_1_0_1 +0 x_1_0_2 +0 x_1_0_3 +1 x_1_0_0_sb -1 x_1_0_1_sb +1 x_1_0_2_sb -1 x_1_0_3_sb +0 p0_1_0 +0 p1_1_0 >= -1
+0 x_1_0_0 -1 x_1_0_1 +0 x_1_0_2 -1 x_1_0_3 +1 x_1_0_0_sb -1 x_1_0_1_sb -1 x_1_0_2_sb -1 x_1_0_3_sb +0 p0_1_0 +0 p1_1_0 >= -4
+1 x_1_0_0 +0 x_1_0_1 +0 x_1_0_2 +1 x_1_0_3 +0 x_1_0_0_sb -1 x_1_0_1_sb -1 x_1_0_2_sb +1 x_1_0_3_sb +0 p0_1_0 -1 p1_1_0 >= -2
+0 x_1_0_0 +0 x_1_0_1 -1 x_1_0_2 +1 x_1_0_3 -1 x_1_0_0_sb +1 x_1_0_1_sb +0 x_1_0_2_sb -1 x_1_0_3_sb +0 p0_1_0 -1 p1_1_0 >= -3
+0 x_1_0_0 +1 x_1_0_1 +0 x_1_0_2 +1 x_1_0_3 -1 x_1_0_0_sb -1 x_1_0_1_sb +0 x_1_0_2_sb +1 x_1_0_3_sb +0 p0_1_0 -1 p1_1_0 >= -2
-1 x_1_0_0 +1 x_1_0_1 +0 x_1_0_2 -1 x_1_0_3 +0 x_1_0_0_sb +0 x_1_0_1_sb -1 x_1_0_2_sb +1 x_1_0_3_sb +0 p0_1_0 -1 p1_1_0 >= -3
-1 x_1_0_0 +0 x_1_0_1 +0 x_1_0_2 +0 x_1_0_3 -1 x_1_0_0_sb +1 x_1_0_1_sb +0 x_1_0_2_sb -1 x_1_0_3_sb +0 p0_1_0 -1 p1_1_0 >= -3
+0 x_1_0_0 +0 x_1_0_1 -1 x_1_0_2 +0 x_1_0_3 +1 x_1_0_0_sb +1 x_1_0_1_sb +0 x_1_0_2_sb +1 x_1_0_3_sb +0 p0_1_0 +0 p1_1_0 >= 0
+0 x_1_2_0 +0 x_1_2_1 +0 x_1_2_2 +0 x_1_2_3 +0 x_1_1_0_sb +0 x_1_1_1_sb +0 x_1_1_2_sb +0 x_1_1_3_sb -1 p0_1_1 -1 p1_1_1 >= -1
+0 x_1_2_0 +0 x_1_2_1 +0 x_1_2_2 +0 x_1_2_3 +0 x_1_1_0_sb +0 x_1_1_1_sb +0 x_1_1_2_sb -1 x_1_1_3_sb +1 p0_1_1 +1 p1_1_1 >= 0
+0 x_1_2_0 +0 x_1_2_1 +0 x_1_2_2 +0 x_1_2_3 +0 x_1_1_0_sb -1 x_1_1_1_sb +0 x_1_1_2_sb +0 x_1_1_3_sb +1 p0_1_1 +1 p1_1_1 >= 0
+0 x_1_2_0 +0 x_1_2_1 +0 x_1_2_2 +0 x_1_2_3 -1 x_1_1_0_sb +0 x_1_1_1_sb +0 x_1_1_2_sb +0 x_1_1_3_sb +1 p0_1_1 +1 p1_1_1 >= 0
+0 x_1_2_0 +0 x_1_2_1 +0 x_1_2_2 +0 x_1_2_3 +1 x_1_1_0_sb +1 x_1_1_1_sb +1 x_1_1_2_sb +1 x_1_1_3_sb +0 p0_1_1 -1 p1_1_1 >= 0
+0 x_1_2_0 +0 x_1_2_1 +0 x_1_2_2 -1 x_1_2_3 +1 x_1_1_0_sb +1 x_1_1_1_sb +0 x_1_1_2_sb +1 x_1_1_3_sb +0 p0_1_1 +1 p1_1_1 >= 0
-1 x_1_2_0 +0 x_1_2_1 -1 x_1_2_2 +0 x_1_2_3 +1 x_1_1_0_sb +0 x_1_1_1_sb +0 x_1_1_2_sb +1 x_1_1_3_sb +0 p0_1_1 -1 p1_1_1 >= -2
+1 x_1_2_0 +0 x_1_2_1 +1 x_1_2_2 +0 x_1_2_3 +1 x_1_1_0_sb +0 x_1_1_1_sb +1 x_1_1_2_sb +0 x_1_1_3_sb +0 p0_1_1 -1 p1_1_1 >= 0
+0 x_1_2_0 +0 x_1_2_1 +0 x_1_2_2 +1 x_1_2_3 +0 x_1_1_0_sb +1 x_1_1_1_sb -1 x_1_1_2_sb -1 x_1_1_3_sb +0 p0_1_1 -1 p1_1_1 >= -2
-1 x_1_2_0 +0 x_1_2_1 +0 x_1_2_2 -1 x_1_2_3 -1 x_1_1_0_sb +0 x_1_1_1_sb +0 x_1_1_2_sb +1 x_1_1_3_sb +0 p0_1_1 -1 p1_1_1 >= -3
+0 x_1_2_0 +0 x_1_2_1 +0 x_1_2_2 +1 x_1_2_3 -1 x_1_1_0_sb -1 x_1_1_1_sb -1 x_1_1_2_sb +0 x_1_1_3_sb +0 p0_1_1 -1 p1_1_1 >= -3
+1 x_1_2_0 +1 x_1_2_1 +0 x_1_2_2 +1 x_1_2_3 +0 x_1_1_0_sb +0 x_1_1_1_sb +0 x_1_1_2_sb +0 x_1_1_3_sb -1 p0_1_1 +0 p1_1_1 >= 0
+0 x_1_2_0 +0 x_1_2_1 +1 x_1_2_2 +1 x_1_2_3 +0 x_1_1_0_sb -1 x_1_1_1_sb +1 x_1_1_2_sb +0 x_1_1_3_sb +0 p0_1_1 -1 p1_1_1 >= -1
+0 x_1_2_0 +1 x_1_2_1 +0 x_1_2_2 -1 x_1_2_3 -1 x_1_1_0_sb +0 x_1_1_1_sb -1 x_1_1_2_sb +0 x_1_1_3_sb +0 p0_1_1 -1 p1_1_1 >= -3
+0 x_1_2_0 +1 x_1_2_1 +1 x_1_2_2 +0 x_1_2_3 +0 x_1_1_0_sb +0 x_1_1_1_sb +1 x_1_1_2_sb -1 x_1_1_3_sb +0 p0_1_1 -1 p1_1_1 >= -1
-1 x_1_2_0 +0 x_1_2_1 -1 x_1_2_2 +0 x_1_2_3 -1 x_1_1_0_sb +0 x_1_1_1_sb +1 x_1_1_2_sb +0 x_1_1_3_sb +0 p0_1_1 -1 p1_1_1 >= -3
+0 x_1_2_0 -1 x_1_2_1 -1 x_1_2_2 +0 x_1_2_3 +0 x_1_1_0_sb +1 x_1_1_1_sb +0 x_1_1_2_sb +1 x_1_1_3_sb +0 p0_1_1 -1 p1_1_1 >= -2
+0 x_1_2_0 -1 x_1_2_1 +0 x_1_2_2 +0 x_1_2_3 +1 x_1_1_0_sb +1 x_1_1_1_sb +0 x_1_1_2_sb +1 x_1_1_3_sb +0 p0_1_1 +1 p1_1_1 >= 0
-1 x_1_2_0 -1 x_1_2_1 +0 x_1_2_2 +1 x_1_2_3 +0 x_1_1_0_sb +1 x_1_1_1_sb +0 x_1_1_2_sb +1 x_1_1_3_sb +0 p0_1_1 -1 p1_1_1 >= -2
+0 x_1_2_0 -1 x_1_2_1 +0 x_1_2_2 +0 x_1_2_3 +1 x_1_1_0_sb +0 x_1_1_1_sb +1 x_1_1_2_sb +1 x_1_1_3_sb +0 p0_1_1 -1 p1_1_1 >= -1
-1 x_1_2_0 +0 x_1_2_1 -1 x_1_2_2 +0 x_1_2_3 +1 x_1_1_0_sb +1 x_1_1_1_sb +0 x_1_1_2_sb +0 x_1_1_3_sb +0 p0_1_1 -1 p1_1_1 >= -2
+0 x_1_2_0 +1 x_1_2_1 -1 x_1_2_2 -1 x_1_2_3 +0 x_1_1_0_sb +0 x_1_1_1_sb +0 x_1_1_2_sb +1 x_1_1_3_sb +0 p0_1_1 -1 p1_1_1 >= -2
-1 x_1_2_0 -1 x_1_2_1 +0 x_1_2_2 -1 x_1_2_3 +0 x_1_1_0_sb +1 x_1_1_1_sb +0 x_1_1_2_sb -1 x_1_1_3_sb +0 p0_1_1 -1 p1_1_1 >= -4
-1 x_1_2_0 +1 x_1_2_1 +0 x_1_2_2 +1 x_1_2_3 +0 x_1_1_0_sb +1 x_1_1_1_sb +0 x_1_1_2_sb +1 x_1_1_3_sb +0 p0_1_1 +1 p1_1_1 >= 0
+0 x_1_2_0 +0 x_1_2_1 +0 x_1_2_2 +0 x_1_2_3 +1 x_1_1_0_sb -1 x_1_1_1_sb +0 x_1_1_2_sb -1 x_1_1_3_sb +0 p0_1_1 +1 p1_1_1 >= -1
+1 x_1_2_0 +0 x_1_2_1 +1 x_1_2_2 +0 x_1_2_3 +1 x_1_1_0_sb -1 x_1_1_1_sb +0 x_1_1_2_sb +0 x_1_1_3_sb +0 p0_1_1 -1 p1_1_1 >= -1
+0 x_1_2_0 +1 x_1_2_1 +0 x_1_2_2 +1 x_1_2_3 +0 x_1_1_0_sb -1 x_1_1_1_sb -1 x_1_1_2_sb +0 x_1_1_3_sb +0 p0_1_1 -1 p1_1_1 >= -2
+1 x_1_2_0 -1 x_1_2_1 +0 x_1_2_2 -1 x_1_2_3 +0 x_1_1_0_sb +0 x_1_1_1_sb +1 x_1_1_2_sb +0 x_1_1_3_sb +0 p0_1_1 +0 p1_1_1 >= -1
+1 x_1_2_0 -1 x_1_2_1 -1 x_1_2_2 +0 x_1_2_3 +0 x_1_1_0_sb +0 x_1_1_1_sb +1 x_1_1_2_sb -1 x_1_1_3_sb +0 p0_1_1 -1 p1_1_1 >= -3
+1 x_1_2_0 -1 x_1_2_1 +0 x_1_2_2 -1 x_1_2_3 +0 x_1_1_0_sb +0 x_1_1_1_sb +0 x_1_1_2_sb +0 x_1_1_3_sb +0 p0_1_1 +1 p1_1_1 >= -1
+1 x_1_2_0 +0 x_1_2_1 +0 x_1_2_2 +0 x_1_2_3 -1 x_1_1_0_sb +1 x_1_1_1_sb +0 x_1_1_2_sb -1 x_1_1_3_sb +0 p0_1_1 +1 p1_1_1 >= -1
+1 x_1_2_0 +0 x_1_2_1 +0 x_1_2_2 +0 x_1_2_3 -1 x_1_1_0_sb -1 x_1_1_1_sb +0 x_1_1_2_sb +1 x_1_1_3_sb +0 p0_1_1 +1 p1_1_1 >= -1
-1 x_1_2_0 -1 x_1_2_1 +0 x_1_2_2 +1 x_1_2_3 +1 x_1_1_0_sb +0 x_1_1_1_sb +0 x_1_1_2_sb +0 x_1_1_3_sb +0 p0_1_1 +1 p1_1_1 >= -1
-1 x_1_2_0 +1 x_1_2_1 +0 x_1_2_2 -1 x_1_2_3 +1 x_1_1_0_sb +0 x_1_1_1_sb +0 x_1_1_2_sb +0 x_1_1_3_sb +0 p0_1_1 +1 p1_1_1 >= -1
+0 x_1_2_0 -1 x_1_2_1 +0 x_1_2_2 -1 x_1_2_3 +0 x_1_1_0_sb -1 x_1_1_1_sb +0 x_1_1_2_sb -1 x_1_1_3_sb +0 p0_1_1 +1 p1_1_1 >= -3
+1 x_1_2_0 +1 x_1_2_1 +0 x_1_2_2 +1 x_1_2_3 +0 x_1_1_0_sb +0 x_1_1_1_sb -1 x_1_1_2_sb +0 x_1_1_3_sb +0 p0_1_1 +0 p1_1_1 >= 0
-1 x_1_2_0 +0 x_1_2_1 +1 x_1_2_2 -1 x_1_2_3 +0 x_1_1_0_sb -1 x_1_1_1_sb -1 x_1_1_2_sb +0 x_1_1_3_sb +0 p0_1_1 -1 p1_1_1 >= -4
+1 x_1_2_0 +1 x_1_2_1 +0 x_1_2_2 -1 x_1_2_3 +1 x_1_1_0_sb +1 x_1_1_1_sb +0 x_1_1_2_sb -1 x_1_1_3_sb +0 p0_1_1 -1 p1_1_1 >= -2
+1 x_1_2_0 +0 x_1_2_1 +1 x_1_2_2 +0 x_1_2_3 +0 x_1_1_0_sb +1 x_1_1_1_sb +1 x_1_1_2_sb +1 x_1_1_3_sb +0 p0_1_1 -1 p1_1_1 >= 0
+1 x_1_2_0 +0 x_1_2_1 -1 x_1_2_2 -1 x_1_2_3 -1 x_1_1_0_sb -1 x_1_1_1_sb +0 x_1_1_2_sb -1 x_1_1_3_sb +0 p0_1_1 -1 p1_1_1 >= -5
+0 x_1_2_0 +0 x_1_2_1 +1 x_1_2_2 +1 x_1_2_3 -1 x_1_1_0_sb +0 x_1_1_1_sb -1 x_1_1_2_sb +0 x_1_1_3_sb +0 p0_1_1 -1 p1_1_1 >= -2
+0 x_1_2_0 +0 x_1_2_1 +1 x_1_2_2 +0 x_1_2_3 +1 x_1_1_0_sb -1 x_1_1_1_sb +0 x_1_1_2_sb -1 x_1_1_3_sb +0 p0_1_1 +0 p1_1_1 >= -1
+0 x_1_2_0 -1 x_1_2_1 +0 x_1_2_2 -1 x_1_2_3 +0 x_1_1_0_sb +1 x_1_1_1_sb +0 x_1_1_2_sb +1 x_1_1_3_sb +0 p0_1_1 +1 p1_1_1 >= -1
+0 x_1_2_0 +1 x_1_2_1 +0 x_1_2_2 +1 x_1_2_3 +0 x_1_1_0_sb -1 x_1_1_1_sb +0 x_1_1_2_sb -1 x_1_1_3_sb +0 p0_1_1 +1 p1_1_1 >= -1
+1 x_1_2_0 -1 x_1_2_1 +1 x_1_2_2 -1 x_1_2_3 +1 x_1_1_0_sb +0 x_1_1_1_sb +0 x_1_1_2_sb +0 x_1_1_3_sb +0 p0_1_1 +0 p1_1_1 >= -1
+1 x_1_2_0 +0 x_1_2_1 +0 x_1_2_2 +0 x_1_2_3 +1 x_1_1_0_sb -1 x_1_1_1_sb +1 x_1_1_2_sb -1 x_1_1_3_sb +0 p0_1_1 +0 p1_1_1 >= -1
+0 x_1_2_0 -1 x_1_2_1 +0 x_1_2_2 -1 x_1_2_3 +1 x_1_1_0_sb -1 x_1_1_1_sb -1 x_1_1_2_sb -1 x_1_1_3_sb +0 p0_1_1 +0 p1_1_1 >= -4
+1 x_1_2_0 +0 x_1_2_1 +0 x_1_2_2 +1 x_1_2_3 +0 x_1_1_0_sb -1 x_1_1_1_sb -1 x_1_1_2_sb +1 x_1_1_3_sb +0 p0_1_1 -1 p1_1_1 >= -2
+0 x_1_2_0 +0 x_1_2_1 -1 x_1_2_2 +1 x_1_2_3 -1 x_1_1_0_sb +1 x_1_1_1_sb +0 x_1_1_2_sb -1 x_1_1_3_sb +0 p0_1_1 -1 p1_1_1 >= -3
+0 x_1_2_0 +1 x_1_2_1 +0 x_1_2_2 +1 x_1_2_3 -1 x_1_1_0_sb -1 x_1_1_1_sb +0 x_1_1_2_sb +1 x_1_1_3_sb +0 p0_1_1 -1 p1_1_1 >= -2
-1 x_1_2_0 +1 x_1_2_1 +0 x_1_2_2 -1 x_1_2_3 +0 x_1_1_0_sb +0 x_1_1_1_sb -1 x_1_1_2_sb +1 x_1_1_3_sb +0 p0_1_1 -1 p1_1_1 >= -3
-1 x_1_2_0 +0 x_1_2_1 +0 x_1_2_2 +0 x_1_2_3 -1 x_1_1_0_sb +1 x_1_1_1_sb +0 x_1_1_2_sb -1 x_1_1_3_sb +0 p0_1_1 -1 p1_1_1 >= -3
+0 x_1_2_0 +0 x_1_2_1 -1 x_1_2_2 +0 x_1_2_3 +1 x_1_1_0_sb +1 x_1_1_1_sb +0 x_1_1_2_sb +1 x_1_1_3_sb +0 p0_1_1 +0 p1_1_1 >= 0
+0 x_1_4_0 +0 x_1_4_1 +0 x_1_4_2 +0 x_1_4_3 +0 x_1_2_0_sb +0 x_1_2_1_sb +0 x_1_2_2_sb +0 x_1_2_3_sb -1 p0_1_2 -1 p1_1_2 >= -1
+0 x_1_4_0 +0 x_1_4_1 +0 x_1_4_2 +0 x_1_4_3 +0 x_1_2_0_sb +0 x_1_2_1_sb +0 x_1_2_2_sb -1 x_1_2_3_sb +1 p0_1_2 +1 p1_1_2 >= 0
+0 x_1_4_0 +0 x_1_4_1 +0 x_1_4_2 +0 x_1_4_3 +0 x_1_2_0_sb -1 x_1_2_1_sb +0 x_1_2_2_sb +0 x_1_2_3_sb +1 p0_1_2 +1 p1_1_2 >= 0
+0 x_1_4_0 +0 x_1_4_1 +0 x_1_4_2 +0 x_1_4_3 -1 x_1_2_0_sb +0 x_1_2_1_sb +0 x_1_2_2_sb +0 x_1_2_3_sb +1 p0_1_2 +1 p1_1_2 >= 0
+0 x_1_4_0 +0 x_1_4_1 +0 x_1_4_2 +0 x_1_4_3 +1 x_1_2_0_sb +1 x_1_2_1_sb +1 x_1_2_2_sb +1 x_1_2_3_sb +0 p0_1_2 -1 p1_1_2 >= 0
+0 x_1_4_0 +0 x_1_4_1 +0 x_1_4_2 -1 x_1_4_3 +1 x_1_2_0_sb +1 x_1_2_1_sb +0 x_1_2_2_sb +1 x_1_2_3_sb +0 p0_1_2 +1 p1_1_2 >= 0
-1 x_1_4_0 +0 x_1_4_1 -1 x_1_4_2 +0 x_1_4_3 +1 x_1_2_0_sb +0 x_1_2_1_sb +0 x_1_2_2_sb +1 x_1_2_3_sb +0 p0_1_2 -1 p1_1_2 >= -2
+1 x_1_4_0 +0 x_1_4_1 +1 x_1_4_2 +0 x_1_4_3 +1 x_1_2_0_sb +0 x_1_2_1_sb +1 x_1_2_2_sb +0 x_1_2_3_sb +0 p0_1_2 -1 p1_1_2 >= 0
+0 x_1_4_0 +0 x_1_4_1 +0 x_1_4_2 +1 x_1_4_3 +0 x_1_2_0_sb +1 x_1_2_1_sb -1 x_1_2_2_sb -1 x_1_2_3_sb +0 p0_1_2 -1 p1_1_2 >= -2
-1 x_1_4_0 +0 x_1_4_1 +0 x_1_4_2 -1 x_1_4_3 -1 x_1_2_0_sb +0 x_1_2_1_sb +0 x_1_2_2_sb +1 x_1_2_3_sb +0 p0_1_2 -1 p1_1_2 >= -3
+0 x_1_4_0 +0 x_1_4_1 +0 x_1_4_2 +1 x_1_4_3 -1 x_1_2_0_sb -1 x_1_2_1_sb -1 x_1_2_2_sb +0 x_1_2_3_sb +0 p0_1_2 -1 p1_1_2 >= -3
+1 x_1_4_0 +1 x_1_4_1 +0 x_1_4_2 +1 x_1_4_3 +0 x_1_2_0_sb +0 x_1_2_1_sb +0 x_1_2_2_sb +0 x_1_2_3_sb -1 p0_1_2 +0 p1_1_2 >= 0
+0 x_1_4_0 +0 x_1_4_1 +1 x_1_4_2 +1 x_1_4_3 +0 x_1_2_0_sb -1 x_1_2_1_sb +1 x_1_2_2_sb +0 x_1_2_3_sb +0 p0_1_2 -1 p1_1_2 >= -1
+0 x_1_4_0 +1 x_1_4_1 +0 x_1_4_2 -1 x_1_4_3 -1 x_1_2_0_sb +0 x_1_2_1_sb -1 x_1_2_2_sb +0 x_1_2_3_sb +0 p0_1_2 -1 p1_1_2 >= -3
+0 x_1_4_0 +1 x_1_4_1 +1 x_1_4_2 +0 x_1_4_3 +0 x_1_2_0_sb +0 x_1_2_1_sb +1 x_1_2_2_sb -1 x_1_2_3_sb +0 p0_1_2 -1 p1_1_2 >= -1
-1 x_1_4_0 +0 x_1_4_1 -1 x_1_4_2 +0 x_1_4_3 -1 x_1_2_0_sb +0 x_1_2_1_sb +1 x_1_2_2_sb +0 x_1_2_3_sb +0 p0_1_2 -1 p1_1_2 >= -3
+0 x_1_4_0 -1 x_1_4_1 -1 x_1_4_2 +0 x_1_4_3 +0 x_1_2_0_sb +1 x_1_2_1_sb +0 x_1_2_2_sb +1 x_1_2_3_sb +0 p0_1_2 -1 p1_1_2 >= -2
+0 x_1_4_0 -1 x_1_4_1 +0 x_1_4_2 +0 x_1_4_3 +1 x_1_2_0_sb +1 x_1_2_1_sb +0 x_1_2_2_sb +1 x_1_2_3_sb +0 p0_1_2 +1 p1_1_2 >= 0
-1 x_1_4_0 -1 x_1_4_1 +0 x_1_4_2 +1 x_1_4_3 +0 x_1_2_0_sb +1 x_1_2_1_sb +0 x_1_2_2_sb +1 x_1_2_3_sb +0 p0_1_2 -1 p1_1_2 >= -2
+0 x_1_4_0 -1 x_1_4_1 +0 x_1_4_2 +0 x_1_4_3 +1 x_1_2_0_sb +0 x_1_2_1_sb +1 x_1_2_2_sb +1 x_1_2_3_sb +0 p0_1_2 -1 p1_1_2 >= -1
-1 x_1_4_0 +0 x_1_4_1 -1 x_1_4_2 +0 x_1_4_3 +1 x_1_2_0_sb +1 x_1_2_1_sb +0 x_1_2_2_sb +0 x_1_2_3_sb +0 p0_1_2 -1 p1_1_2 >= -2
+0 x_1_4_0 +1 x_1_4_1 -1 x_1_4_2 -1 x_1_4_3 +0 x_1_2_0_sb +0 x_1_2_1_sb +0 x_1_2_2_sb +1 x_1_2_3_sb +0 p0_1_2 -1 p1_1_2 >= -2
-1 x_1_4_0 -1 x_1_4_1 +0 x_1_4_2 -1 x_1_4_3 +0 x_1_2_0_sb +1 x_1_2_1_sb +0 x_1_2_2_sb -1 x_1_2_3_sb +0 p0_1_2 -1 p1_1_2 >= -4
-1 x_1_4_0 +1 x_1_4_1 +0 x_1_4_2 +1 x_1_4_3 +0 x_1_2_0_sb +1 x_1_2_1_sb +0 x_1_2_2_sb +1 x_1_2_3_sb +0 p0_1_2 +1 p1_1_2 >= 0
+0 x_1_4_0 +0 x_1_4_1 +0 x_1_4_2 +0 x_1_4_3 +1 x_1_2_0_sb -1 x_1_2_1_sb +0 x_1_2_2_sb -1 x_1_2_3_sb +0 p0_1_2 +1 p1_1_2 >= -1
+1 x_1_4_0 +0 x_1_4_1 +1 x_1_4_2 +0 x_1_4_3 +1 x_1_2_0_sb -1 x_1_2_1_sb +0 x_1_2_2_sb +0 x_1_2_3_sb +0 p0_1_2 -1 p1_1_2 >= -1
+0 x_1_4_0 +1 x_1_4_1 +0 x_1_4_2 +1 x_1_4_3 +0 x_1_2_0_sb -1 x_1_2_1_sb -1 x_1_2_2_sb +0 x_1_2_3_sb +0 p0_1_2 -1 p1_1_2 >= -2
+1 x_1_4_0 -1 x_1_4_1 +0 x_1_4_2 -1 x_1_4_3 +0 x_1_2_0_sb +0 x_1_2_1_sb +1 x_1_2_2_sb +0 x_1_2_3_sb +0 p0_1_2 +0 p1_1_2 >= -1
+1 x_1_4_0 -1 x_1_4_1 -1 x_1_4_2 +0 x_1_4_3 +0 x_1_2_0_sb +0 x_1_2_1_sb +1 x_1_2_2_sb -1 x_1_2_3_sb +0 p0_1_2 -1 p1_1_2 >= -3
+1 x_1_4_0 -1 x_1_4_1 +0 x_1_4_2 -1 x_1_4_3 +0 x_1_2_0_sb +0 x_1_2_1_sb +0 x_1_2_2_sb +0 x_1_2_3_sb +0 p0_1_2 +1 p1_1_2 >= -1
+1 x_1_4_0 +0 x_1_4_1 +0 x_1_4_2 +0 x_1_4_3 -1 x_1_2_0_sb +1 x_1_2_1_sb +0 x_1_2_2_sb -1 x_1_2_3_sb +0 p0_1_2 +1 p1_1_2 >= -1
+1 x_1_4_0 +0 x_1_4_1 +0 x_1_4_2 +0 x_1_4_3 -1 x_1_2_0_sb -1 x_1_2_1_sb +0 x_1_2_2_sb +1 x_1_2_3_sb +0 p0_1_2 +1 p1_1_2 >= -1
-1 x_1_4_0 -1 x_1_4_1 +0 x_1_4_2 +1 x_1_4_3 +1 x_1_2_0_sb +0 x_1_2_1_sb +0 x_1_2_2_sb +0 x_1_2_3_sb +0 p0_1_2 +1 p1_1_2 >= -1
-1 x_1_4_0 +1 x_1_4_1 +0 x_1_4_2 -1 x_1_4_3 +1 x_1_2_0_sb +0 x_1_2_1_sb +0 x_1_2_2_sb +0 x_1_2_3_sb +0 p0_1_2 +1 p1_1_2 >= -1
+0 x_1_4_0 -1 x_1_4_1 +0 x_1_4_2 -1 x_1_4_3 +0 x_1_2_0_sb -1 x_1_2_1_sb +0 x_1_2_2_sb -1 x_1_2_3_sb +0 p0_1_2 +1 p1_1_2 >= -3
+1 x_1_4_0 +1 x_1_4_1 +0 x_1_4_2 +1 x_1_4_3 +0 x_1_2_0_sb +0 x_1_2_1_sb -1 x_1_2_2_sb +0 x_1_2_3_sb +0 p0_1_2 +0 p1_1_2 >= 0
-1 x_1_4_0 +0 x_1_4_1 +1 x_1_4_2 -1 x_1_4_3 +0 x_1_2_0_sb -1 x_1_2_1_sb -1 x_1_2_2_sb +0 x_1_2_3_sb +0 p0_1_2 -1 p1_1_2 >= -4
+1 x_1_4_0 +1 x_1_4_1 +0 x_1_4_2 -1 x_1_4_3 +1 x_1_2_0_sb +1 x_1_2_1_sb +0 x_1_2_2_sb -1 x_1_2_3_sb +0 p0_1_2 -1 p1_1_2 >= -2
+1 x_1_4_0 +0 x_1_4_1 +1 x_1_4_2 +0 x_1_4_3 +0 x_1_2_0_sb +1 x_1_2_1_sb +1 x_1_2_2_sb +1 x_1_2_3_sb +0 p0_1_2 -1 p1_1_2 >= 0
+1 x_1_4_0 +0 x_1_4_1 -1 x_1_4_2 -1 x_1_4_3 -1 x_1_2_0_sb -1 x_1_2_1_sb +0 x_1_2_2_sb -1 x_1_2_3_sb +0 p0_1_2 -1 p1_1_2 >= -5
+0 x_1_4_0 +0 x_1_4_1 +1 x_1_4_2 +1 x_1_4_3 -1 x_1_2_0_sb +0 x_1_2_1_sb -1 x_1_2_2_sb +0 x_1_2_3_sb +0 p0_1_2 -1 p1_1_2 >= -2
+0 x_1_4_0 +0 x_1_4_1 +1 x_1_4_2 +0 x_1_4_3 +1 x_1_2_0_sb -1 x_1_2_1_sb +0 x_1_2_2_sb -1 x_1_2_3_sb +0 p0_1_2 +0 p1_1_2 >= -1
+0 x_1_4_0 -1 x_1_4_1 +0 x_1_4_2 -1 x_1_4_3 +0 x_1_2_0_sb +1 x_1_2_1_sb +0 x_1_2_2_sb +1 x_1_2_3_sb +0 p0_1_2 +1 p1_1_2 >= -1
+0 x_1_4_0 +1 x_1_4_1 +0 x_1_4_2 +1 x_1_4_3 +0 x_1_2_0_sb -1 x_1_2_1_sb +0 x_1_2_2_sb -1 x_1_2_3_sb +0 p0_1_2 +1 p1_1_2 >= -1
+1 x_1_4_0 -1 x_1_4_1 +1 x_1_4_2 -1 x_1_4_3 +1 x_1_2_0_sb +0 x_1_2_1_sb +0 x_1_2_2_sb +0 x_1_2_3_sb +0 p0_1_2 +0 p1_1_2 >= -1
+1 x_1_4_0 +0 x_1_4_1 +0 x_1_4_2 +0 x_1_4_3 +1 x_1_2_0_sb -1 x_1_2_1_sb +1 x_1_2_2_sb -1 x_1_2_3_sb +0 p0_1_2 +0 p1_1_2 >= -1
+0 x_1_4_0 -1 x_1_4_1 +0 x_1_4_2 -1 x_1_4_3 +1 x_1_2_0_sb -1 x_1_2_1_sb -1 x_1_2_2_sb -1 x_1_2_3_sb +0 p0_1_2 +0 p1_1_2 >= -4
+1 x_1_4_0 +0 x_1_4_1 +0 x_1_4_2 +1 x_1_4_3 +0 x_1_2_0_sb -1 x_1_2_1_sb -1 x_1_2_2_sb +1 x_1_2_3_sb +0 p0_1_2 -1 p1_1_2 >= -2
+0 x_1_4_0 +0 x_1_4_1 -1 x_1_4_2 +1 x_1_4_3 -1 x_1_2_0_sb +1 x_1_2_1_sb +0 x_1_2_2_sb -1 x_1_2_3_sb +0 p0_1_2 -1 p1_1_2 >= -3
+0 x_1_4_0 +1 x_1_4_1 +0 x_1_4_2 +1 x_1_4_3 -1 x_1_2_0_sb -1 x_1_2_1_sb +0 x_1_2_2_sb +1 x_1_2_3_sb +0 p0_1_2 -1 p1_1_2 >= -2
-1 x_1_4_0 +1 x_1_4_1 +0 x_1_4_2 -1 x_1_4_3 +0 x_1_2_0_sb +0 x_1_2_1_sb -1 x_1_2_2_sb +1 x_1_2_3_sb +0 p0_1_2 -1 p1_1_2 >= -3
-1 x_1_4_0 +0 x_1_4_1 +0 x_1_4_2 +0 x_1_4_3 -1 x_1_2_0_sb +1 x_1_2_1_sb +0 x_1_2_2_sb -1 x_1_2_3_sb +0 p0_1_2 -1 p1_1_2 >= -3
+0 x_1_4_0 +0 x_1_4_1 -1 x_1_4_2 +0 x_1_4_3 +1 x_1_2_0_sb +1 x_1_2_1_sb +0 x_1_2_2_sb +1 x_1_2_3_sb +0 p0_1_2 +0 p1_1_2 >= 0
+0 x_1_6_0 +0 x_1_6_1 +0 x_1_6_2 +0 x_1_6_3 +0 x_1_3_0_sb +0 x_1_3_1_sb +0 x_1_3_2_sb +0 x_1_3_3_sb -1 p0_1_3 -1 p1_1_3 >= -1
+0 x_1_6_0 +0 x_1_6_1 +0 x_1_6_2 +0 x_1_6_3 +0 x_1_3_0_sb +0 x_1_3_1_sb +0 x_1_3_2_sb -1 x_1_3_3_sb +1 p0_1_3 +1 p1_1_3 >= 0
+0 x_1_6_0 +0 x_1_6_1 +0 x_1_6_2 +0 x_1_6_3 +0 x_1_3_0_sb -1 x_1_3_1_sb +0 x_1_3_2_sb +0 x_1_3_3_sb +1 p0_1_3 +1 p1_1_3 >= 0
+0 x_1_6_0 +0 x_1_6_1 +0 x_1_6_2 +0 x_1_6_3 -1 x_1_3_0_sb +0 x_1_3_1_sb +0 x_1_3_2_sb +0 x_1_3_3_sb +1 p0_1_3 +1 p1_1_3 >= 0
+0 x_1_6_0 +0 x_1_6_1 +0 x_1_6_2 +0 x_1_6_3 +1 x_1_3_0_sb +1 x_1_3_1_sb +1 x_1_3_2_sb +1 x_1_3_3_sb +0 p0_1_3 -1 p1_1_3 >= 0
+0 x_1_6_0 +0 x_1_6_1 +0 x_1_6_2 -1 x_1_6_3 +1 x_1_3_0_sb +1 x_1_3_1_sb +0 x_1_3_2_sb +1 x_1_3_3_sb +0 p0_1_3 +1 p1_1_3 >= 0
-1 x_1_6_0 +0 x_1_6_1 -1 x_1_6_2 +0 x_1_6_3 +1 x_1_3_0_sb +0 x_1_3_1_sb +0 x_1_3_2_sb +1 x_1_3_3_sb +0 p0_1_3 -1 p1_1_3 >= -2
+1 x_1_6_0 +0 x_1_6_1 +1 x_1_6_2 +0 x_1_6_3 +1 x_1_3_0_sb +0 x_1_3_1_sb +1 x_1_3_2_sb +0 x_1_3_3_sb +0 p0_1_3 -1 p1_1_3 >= 0
+0 x_1_6_0 +0 x_1_6_1 +0 x_1_6_2 +1 x_1_6_3 +0 x_1_3_0_sb +1 x_1_3_1_sb -1 x_1_3_2_sb -1 x_1_3_3_sb +0 p0_1_3 -1 p1_1_3 >= -2
-1 x_1_6_0 +0 x_1_6_1 +0 x_1_6_2 -1 x_1_6_3 -1 x_1_3_0_sb +0 x_1_3_1_sb +0 x_1_3_2_sb +1 x_1_3_3_sb +0 p0_1_3 -1 p1_1_3 >= -3
+0 x_1_6_0 +0 x_1_6_1 +0 x_1_6_2 +1 x_1_6_3 -1 x_1_3_0_sb -1 x_1_3_1_sb -1 x_1_3_2_sb +0 x_1_3_3_sb +0 p0_1_3 -1 p1_1_3 >= -3
+1 x_1_6_0 +1 x_1_6_1 +0 x_1_6_2 +1 x_1_6_3 +0 x_1_3_0_sb +0 x_1_3_1_sb +0 x_1_3_2_sb +0 x_1_3_3_sb -1 p0_1_3 +0 p1_1_3 >= 0
+0 x_1_6_0 +0 x_1_6_1 +1 x_1_6_2 +1 x_1_6_3 +0 x_1_3_0_sb -1 x_1_3_1_sb +1 x_1_3_2_sb +0 x_1_3_3_sb +0 p0_1_3 -1 p1_1_3 >= -1
+0 x_1_6_0 +1 x_1_6_1 +0 x_1_6_2 -1 x_1_6_3 -1 x_1_3_0_sb +0 x_1_3_1_sb -1 x_1_3_2_sb +0 x_1_3_3_sb +0 p0_1_3 -1 p1_1_3 >= -3
+0 x_1_6_0 +1 x_1_6_1 +1 x_1_6_2 +0 x_1_6_3 +0 x_1_3_0_sb +0 x_1_3_1_sb +1 x_1_3_2_sb -1 x_1_3_3_sb +0 p0_1_3 -1 p1_1_3 >= -1
-1 x_1_6_0 +0 x_1_6_1 -1 x_1_6_2 +0 x_1_6_3 -1 x_1_3_0_sb +0 x_1_3_1_sb +1 x_1_3_2_sb +0 x_1_3_3_sb +0 p0_1_3 -1 p1_1_3 >= -3
+0 x_1_6_0 -1 x_1_6_1 -1 x_1_6_2 +0 x_1_6_3 +0 x_1_3_0_sb +1 x_1_3_1_sb +0 x_1_3_2_sb +1 x_1_3_3_sb +0 p0_1_3 -1 p1_1_3 >= -2
+0 x_1_6_0 -1 x_1_6_1 +0 x_1_6_2 +0 x_1_6_3 +1 x_1_3_0_sb +1 x_1_3_1_sb +0 x_1_3_2_sb +1 x_1_3_3_sb +0 p0_1_3 +1 p1_1_3 >= 0
-1 x_1_6_0 -1 x_1_6_1 +0 x_1_6_2 +1 x_1_6_3 +0 x_1_3_0_sb +1 x_1_3_1_sb +0 x_1_3_2_sb +1 x_1_3_3_sb +0 p0_1_3 -1 p1_1_3 >= -2
+0 x_1_6_0 -1 x_1_6_1 +0 x_1_6_2 +0 x_1_6_3 +1 x_1_3_0_sb +0 x_1_3_1_sb +1 x_1_3_2_sb +1 x_1_3_3_sb +0 p0_1_3 -1 p1_1_3 >= -1
-1 x_1_6_0 +0 x_1_6_1 -1 x_1_6_2 +0 x_1_6_3 +1 x_1_3_0_sb +1 x_1_3_1_sb +0 x_1_3_2_sb +0 x_1_3_3_sb +0 p0_1_3 -1 p1_1_3 >= -2
+0 x_1_6_0 +1 x_1_6_1 -1 x_1_6_2 -1 x_1_6_3 +0 x_1_3_0_sb +0 x_1_3_1_sb +0 x_1_3_2_sb +1 x_1_3_3_sb +0 p0_1_3 -1 p1_1_3 >= -2
-1 x_1_6_0 -1 x_1_6_1 +0 x_1_6_2 -1 x_1_6_3 +0 x_1_3_0_sb +1 x_1_3_1_sb +0 x_1_3_2_sb -1 x_1_3_3_sb +0 p0_1_3 -1 p1_1_3 >= -4
-1 x_1_6_0 +1 x_1_6_1 +0 x_1_6_2 +1 x_1_6_3 +0 x_1_3_0_sb +1 x_1_3_1_sb +0 x_1_3_2_sb +1 x_1_3_3_sb +0 p0_1_3 +1 p1_1_3 >= 0
+0 x_1_6_0 +0 x_1_6_1 +0 x_1_6_2 +0 x_1_6_3 +1 x_1_3_0_sb -1 x_1_3_1_sb +0 x_1_3_2_sb -1 x_1_3_3_sb +0 p0_1_3 +1 p1_1_3 >= -1
+1 x_1_6_0 +0 x_1_6_1 +1 x_1_6_2 +0 x_1_6_3 +1 x_1_3_0_sb -1 x_1_3_1_sb +0 x_1_3_2_sb +0 x_1_3_3_sb +0 p0_1_3 -1 p1_1_3 >= -1
+0 x_1_6_0 +1 x_1_6_1 +0 x_1_6_2 +1 x_1_6_3 +0 x_1_3_0_sb -1 x_1_3_1_sb -1 x_1_3_2_sb +0 x_1_3_3_sb +0 p0_1_3 -1 p1_1_3 >= -2
+1 x_1_6_0 -1 x_1_6_1 +0 x_1_6_2 -1 x_1_6_3 +0 x_1_3_0_sb +0 x_1_3_1_sb +1 x_1_3_2_sb +0 x_1_3_3_sb +0 p0_1_3 +0 p1_1_3 >= -1
+1 x_1_6_0 -1 x_1_6_1 -1 x_1_6_2 +0 x_1_6_3 +0 x_1_3_0_sb +0 x_1_3_1_sb +1 x_1_3_2_sb -1 x_1_3_3_sb +0 p0_1_3 -1 p1_1_3 >= -3
+1 x_1_6_0 -1 x_1_6_1 +0 x_1_6_2 -1 x_1_6_3 +0 x_1_3_0_sb +0 x_1_3_1_sb +0 x_1_3_2_sb +0 x_1_3_3_sb +0 p0_1_3 +1 p1_1_3 >= -1
+1 x_1_6_0 +0 x_1_6_1 +0 x_1_6_2 +0 x_1_6_3 -1 x_1_3_0_sb +1 x_1_3_1_sb +0 x_1_3_2_sb -1 x_1_3_3_sb +0 p0_1_3 +1 p1_1_3 >= -1
+1 x_1_6_0 +0 x_1_6_1 +0 x_1_6_2 +0 x_1_6_3 -1 x_1_3_0_sb -1 x_1_3_1_sb +0 x_1_3_2_sb +1 x_1_3_3_sb +0 p0_1_3 +1 p1_1_3 >= -1
-1 x_1_6_0 -1 x_1_6_1 +0 x_1_6_2 +1 x_1_6_3 +1 x_1_3_0_sb +0 x_1_3_1_sb +0 x_1_3_2_sb +0 x_1_3_3_sb +0 p0_1_3 +1 p1_1_3 >= -1
-1 x_1_6_0 +1 x_1_6_1 +0 x_1_6_2 -1 x_1_6_3 +1 x_1_3_0_sb +0 x_1_3_1_sb +0 x_1_3_2_sb +0 x_1_3_3_sb +0 p0_1_3 +1 p1_1_3 >= -1
+0 x_1_6_0 -1 x_1_6_1 +0 x_1_6_2 -1 x_1_6_3 +0 x_1_3_0_sb -1 x_1_3_1_sb +0 x_1_3_2_sb -1 x_1_3_3_sb +0 p0_1_3 +1 p1_1_3 >= -3
+1 x_1_6_0 +1 x_1_6_1 +0 x_1_6_2 +1 x_1_6_3 +0 x_1_3_0_sb +0 x_1_3_1_sb -1 x_1_3_2_sb +0 x_1_3_3_sb +0 p0_1_3 +0 p1_1_3 >= 0
-1 x_1_6_0 +0 x_1_6_1 +1 x_1_6_2 -1 x_1_6_3 +0 x_1_3_0_sb -1 x_1_3_1_sb -1 x_1_3_2_sb +0 x_1_3_3_sb +0 p0_1_3 -1 p1_1_3 >= -4
+1 x_1_6_0 +1 x_1_6_1 +0 x_1_6_2 -1 x_1_6_3 +1 x_1_3_0_sb +1 x_1_3_1_sb +0 x_1_3_2_sb -1 x_1_3_3_sb +0 p0_1_3 -1 p1_1_3 >= -2
+1 x_1_6_0 +0 x_1_6_1 +1 x_1_6_2 +0 x_1_6_3 +0 x_1_3_0_sb +1 x_1_3_1_sb +1 x_1_3_2_sb +1 x_1_3_3_sb +0 p0_1_3 -1 p1_1_3 >= 0
+1 x_1_6_0 +0 x_1_6_1 -1 x_1_6_2 -1 x_1_6_3 -1 x_1_3_0_sb -1 x_1_3_1_sb +0 x_1_3_2_sb -1 x_1_3_3_sb +0 p0_1_3 -1 p1_1_3 >= -5
+0 x_1_6_0 +0 x_1_6_1 +1 x_1_6_2 +1 x_1_6_3 -1 x_1_3_0_sb +0 x_1_3_1_sb -1 x_1_3_2_sb +0 x_1_3_3_sb +0 p0_1_3 -1 p1_1_3 >= -2
+0 x_1_6_0 +0 x_1_6_1 +1 x_1_6_2 +0 x_1_6_3 +1 x_1_3_0_sb -1 x_1_3_1_sb +0 x_1_3_2_sb -1 x_1_3_3_sb +0 p0_1_3 +0 p1_1_3 >= -1
+0 x_1_6_0 -1 x_1_6_1 +0 x_1_6_2 -1 x_1_6_3 +0 x_1_3_0_sb +1 x_1_3_1_sb +0 x_1_3_2_sb +1 x_1_3_3_sb +0 p0_1_3 +1 p1_1_3 >= -1
+0 x_1_6_0 +1 x_1_6_1 +0 x_1_6_2 +1 x_1_6_3 +0 x_1_3_0_sb -1 x_1_3_1_sb +0 x_1_3_2_sb -1 x_1_3_3_sb +0 p0_1_3 +1 p1_1_3 >= -1
+1 x_1_6_0 -1 x_1_6_1 +1 x_1_6_2 -1 x_1_6_3 +1 x_1_3_0_sb +0 x_1_3_1_sb +0 x_1_3_2_sb +0 x_1_3_3_sb +0 p0_1_3 +0 p1_1_3 >= -1
+1 x_1_6_0 +0 x_1_6_1 +0 x_1_6_2 +0 x_1_6_3 +1 x_1_3_0_sb -1 x_1_3_1_sb +1 x_1_3_2_sb -1 x_1_3_3_sb +0 p0_1_3 +0 p1_1_3 >= -1
+0 x_1_6_0 -1 x_1_6_1 +0 x_1_6_2 -1 x_1_6_3 +1 x_1_3_0_sb -1 x_1_3_1_sb -1 x_1_3_2_sb -1 x_1_3_3_sb +0 p0_1_3 +0 p1_1_3 >= -4
+1 x_1_6_0 +0 x_1_6_1 +0 x_1_6_2 +1 x_1_6_3 +0 x_1_3_0_sb -1 x_1_3_1_sb -1 x_1_3_2_sb +1 x_1_3_3_sb +0 p0_1_3 -1 p1_1_3 >= -2
+0 x_1_6_0 +0 x_1_6_1 -1 x_1_6_2 +1 x_1_6_3 -1 x_1_3_0_sb +1 x_1_3_1_sb +0 x_1_3_2_sb -1 x_1_3_3_sb +0 p0_1_3 -1 p1_1_3 >= -3
+0 x_1_6_0 +1 x_1_6_1 +0 x_1_6_2 +1 x_1_6_3 -1 x_1_3_0_sb -1 x_1_3_1_sb +0 x_1_3_2_sb +1 x_1_3_3_sb +0 p0_1_3 -1 p1_1_3 >= -2
-1 x_1_6_0 +1 x_1_6_1 +0 x_1_6_2 -1 x_1_6_3 +0 x_1_3_0_sb +0 x_1_3_1_sb -1 x_1_3_2_sb +1 x_1_3_3_sb +0 p0_1_3 -1 p1_1_3 >= -3
-1 x_1_6_0 +0 x_1_6_1 +0 x_1_6_2 +0 x_1_6_3 -1 x_1_3_0_sb +1 x_1_3_1_sb +0 x_1_3_2_sb -1 x_1_3_3_sb +0 p0_1_3 -1 p1_1_3 >= -3
+0 x_1_6_0 +0 x_1_6_1 -1 x_1_6_2 +0 x_1_6_3 +1 x_1_3_0_sb +1 x_1_3_1_sb +0 x_1_3_2_sb +1 x_1_3_3_sb +0 p0_1_3 +0 p1_1_3 >= 0
+0 x_1_8_0 +0 x_1_8_1 +0 x_1_8_2 +0 x_1_8_3 +0 x_1_4_0_sb +0 x_1_4_1_sb +0 x_1_4_2_sb +0 x_1_4_3_sb -1 p0_1_4 -1 p1_1_4 >= -1
+0 x_1_8_0 +0 x_1_8_1 +0 x_1_8_2 +0 x_1_8_3 +0 x_1_4_0_sb +0 x_1_4_1_sb +0 x_1_4_2_sb -1 x_1_4_3_sb +1 p0_1_4 +1 p1_1_4 >= 0
+0 x_1_8_0 +0 x_1_8_1 +0 x_1_8_2 +0 x_1_8_3 +0 x_1_4_0_sb -1 x_1_4_1_sb +0 x_1_4_2_sb +0 x_1_4_3_sb +1 p0_1_4 +1 p1_1_4 >= 0
+0 x_1_8_0 +0 x_1_8_1 +0 x_1_8_2 +0 x_1_8_3 -1 x_1_4_0_sb +0 x_1_4_1_sb +0 x_1_4_2_sb +0 x_1_4_3_sb +1 p0_1_4 +1 p1_1_4 >= 0
+0 x_1_8_0 +0 x_1_8_1 +0 x_1_8_2 +0 x_1_8_3 +1 x_1_4_0_sb +1 x_1_4_1_sb +1 x_1_4_2_sb +1 x_1_4_3_sb +0 p0_1_4 -1 p1_1_4 >= 0
+0 x_1_8_0 +0 x_1_8_1 +0 x_1_8_2 -1 x_1_8_3 +1 x_1_4_0_sb +1 x_1_4_1_sb +0 x_1_4_2_sb +1 x_1_4_3_sb +0 p0_1_4 +1 p1_1_4 >= 0
-1 x_1_8_0 +0 x_1_8_1 -1 x_1_8_2 +0 x_1_8_3 +1 x_1_4_0_sb +0 x_1_4_1_sb +0 x_1_4_2_sb +1 x_1_4_3_sb +0 p0_1_4 -1 p1_1_4 >= -2
+1 x_1_8_0 +0 x_1_8_1 +1 x_1_8_2 +0 x_1_8_3 +1 x_1_4_0_sb +0 x_1_4_1_sb +1 x_1_4_2_sb +0 x_1_4_3_sb +0 p0_1_4 -1 p1_1_4 >= 0
+0 x_1_8_0 +0 x_1_8_1 +0 x_1_8_2 +1 x_1_8_3 +0 x_1_4_0_sb +1 x_1_4_1_sb -1 x_1_4_2_sb -1 x_1_4_3_sb +0 p0_1_4 -1 p1_1_4 >= -2
-1 x_1_8_0 +0 x_1_8_1 +0 x_1_8_2 -1 x_1_8_3 -1 x_1_4_0_sb +0 x_1_4_1_sb +0 x_1_4_2_sb +1 x_1_4_3_sb +0 p0_1_4 -1 p1_1_4 >= -3
+0 x_1_8_0 +0 x_1_8_1 +0 x_1_8_2 +1 x_1_8_3 -1 x_1_4_0_sb -1 x_1_4_1_sb -1 x_1_4_2_sb +0 x_1_4_3_sb +0 p0_1_4 -1 p1_1_4 >= -3
+1 x_1_8_0 +1 x_1_8_1 +0 x_1_8_2 +1 x_1_8_3 +0 x_1_4_0_sb +0 x_1_4_1_sb +0 x_1_4_2_sb +0 x_1_4_3_sb -1 p0_1_4 +0 p1_1_4 >= 0
+0 x_1_8_0 +0 x_1_8_1 +1 x_1_8_2 +1 x_1_8_3 +0 x_1_4_0_sb -1 x_1_4_1_sb +1 x_1_4_2_sb +0 x_1_4_3_sb +0 p0_1_4 -1 p1_1_4 >= -1
+0 x_1_8_0 +1 x_1_8_1 +0 x_1_8_2 -1 x_1_8_3 -1 x_1_4_0_sb +0 x_1_4_1_sb -1 x_1_4_2_sb +0 x_1_4_3_sb +0 p0_1_4 -1 p1_1_4 >= -3
+0 x_1_8_0 +1 x_1_8_1 +1 x_1_8_2 +0 x_1_8_3 +0 x_1_4_0_sb +0 x_1_4_1_sb +1 x_1_4_2_sb -1 x_1_4_3_sb +0 p0_1_4 -1 p1_1_4 >= -1
-1 x_1_8_0 +0 x_1_8_1 -1 x_1_8_2 +0 x_1_8_3 -1 x_1_4_0_sb +0 x_1_4_1_sb +1 x_1_4_2_sb +0 x_1_4_3_sb +0 p0_1_4 -1 p1_1_4 >= -3
+0 x_1_8_0 -1 x_1_8_1 -1 x_1_8_2 +0 x_1_8_3 +0 x_1_4_0_sb +1 x_1_4_1_sb +0 x_1_4_2_sb +1 x_1_4_3_sb +0 p0_1_4 -1 p1_1_4 >= -2
+0 x_1_8_0 -1 x_1_8_1 +0 x_1_8_2 +0 x_1_8_3 +1 x_1_4_0_sb +1 x_1_4_1_sb +0 x_1_4_2_sb +1 x_1_4_3_sb +0 p0_1_4 +1 p1_1_4 >= 0
-1 x_1_8_0 -1 x_1_8_1 +0 x_1_8_2 +1 x_1_8_3 +0 x_1_4_0_sb +1 x_1_4_1_sb +0 x_1_4_2_sb +1 x_1_4_3_sb +0 p0_1_4 -1 p1_1_4 >= -2
+0 x_1_8_0 -1 x_1_8_1 +0 x_1_8_2 +0 x_1_8_3 +1 x_1_4_0_sb +0 x_1_4_1_sb +1 x_1_4_2_sb +1 x_1_4_3_sb +0 p0_1_4 -1 p1_1_4 >= -1
-1 x_1_8_0 +0 x_1_8_1 -1 x_1_8_2 +0 x_1_8_3 +1 x_1_4_0_sb +1 x_1_4_1_sb +0 x_1_4_2_sb +0 x_1_4_3_sb +0 p0_1_4 -1 p1_1_4 >= -2
+0 x_1_8_0 +1 x_1_8_1 -1 x_1_8_2 -1 x_1_8_3 +0 x_1_4_0_sb +0 x_1_4_1_sb +0 x_1_4_2_sb +1 x_1_4_3_sb +0 p0_1_4 -1 p1_1_4 >= -2
-1 x_1_8_0 -1 x_1_8_1 +0 x_1_8_2 -1 x_1_8_3 +0 x_1_4_0_sb +1 x_1_4_1_sb +0 x_1_4_2_sb -1 x_1_4_3_sb +0 p0_1_4 -1 p1_1_4 >= -4
-1 x_1_8_0 +1 x_1_8_1 +0 x_1_8_2 +1 x_1_8_3 +0 x_1_4_0_sb +1 x_1_4_1_sb +0 x_1_4_2_sb +1 x_1_4_3_sb +0 p0_1_4 +1 p1_1_4 >= 0
+0 x_1_8_0 +0 x_1_8_1 +0 x_1_8_2 +0 x_1_8_3 +1 x_1_4_0_sb -1 x_1_4_1_sb +0 x_1_4_2_sb -1 x_1_4_3_sb +0 p0_1_4 +1 p1_1_4 >= -1
+1 x_1_8_0 +0 x_1_8_1 +1 x_1_8_2 +0 x_1_8_3 +1 x_1_4_0_sb -1 x_1_4_1_sb +0 x_1_4_2_sb +0 x_1_4_3_sb +0 p0_1_4 -1 p1_1_4 >= -1
+0 x_1_8_0 +1 x_1_8_1 +0 x_1_8_2 +1 x_1_8_3 +0 x_1_4_0_sb -1 x_1_4_1_sb -1 x_1_4_2_sb +0 x_1_4_3_sb +0 p0_1_4 -1 p1_1_4 >= -2
+1 x_1_8_0 -1 x_1_8_1 +0 x_1_8_2 -1 x_1_8_3 +0 x_1_4_0_sb +0 x_1_4_1_sb +1 x_1_4_2_sb +0 x_1_4_3_sb +0 p0_1_4 +0 p1_1_4 >= -1
+1 x_1_8_0 -1 x_1_8_1 -1 x_1_8_2 +0 x_1_8_3 +0 x_1_4_0_sb +0 x_1_4_1_sb +1 x_1_4_2_sb -1 x_1_4_3_sb +0 p0_1_4 -1 p1_1_4 >= -3
+1 x_1_8_0 -1 x_1_8_1 +0 x_1_8_2 -1 x_1_8_3 +0 x_1_4_0_sb +0 x_1_4_1_sb +0 x_1_4_2_sb +0 x_1_4_3_sb +0 p0_1_4 +1 p1_1_4 >= -1
+1 x_1_8_0 +0 x_1_8_1 +0 x_1_8_2 +0 x_1_8_3 -1 x_1_4_0_sb +1 x_1_4_1_sb +0 x_1_4_2_sb -1 x_1_4_3_sb +0 p0_1_4 +1 p1_1_4 >= -1
+1 x_1_8_0 +0 x_1_8_1 +0 x_1_8_2 +0 x_1_8_3 -1 x_1_4_0_sb -1 x_1_4_1_sb +0 x_1_4_2_sb +1 x_1_4_3_sb +0 p0_1_4 +1 p1_1_4 >= -1
-1 x_1_8_0 -1 x_1_8_1 +0 x_1_8_2 +1 x_1_8_3 +1 x_1_4_0_sb +0 x_1_4_1_sb +0 x_1_4_2_sb +0 x_1_4_3_sb +0 p0_1_4 +1 p1_1_4 >= -1
-1 x_1_8_0 +1 x_1_8_1 +0 x_1_8_2 -1 x_1_8_3 +1 x_1_4_0_sb +0 x_1_4_1_sb +0 x_1_4_2_sb +0 x_1_4_3_sb +0 p0_1_4 +1 p1_1_4 >= -1
+0 x_1_8_0 -1 x_1_8_1 +0 x_1_8_2 -1 x_1_8_3 +0 x_1_4_0_sb -1 x_1_4_1_sb +0 x_1_4_2_sb -1 x_1_4_3_sb +0 p0_1_4 +1 p1_1_4 >= -3
+1 x_1_8_0 +1 x_1_8_1 +0 x_1_8_2 +1 x_1_8_3 +0 x_1_4_0_sb +0 x_1_4_1_sb -1 x_1_4_2_sb +0 x_1_4_3_sb +0 p0_1_4 +0 p1_1_4 >= 0
-1 x_1_8_0 +0 x_1_8_1 +1 x_1_8_2 -1 x_1_8_3 +0 x_1_4_0_sb -1 x_1_4_1_sb -1 x_1_4_2_sb +0 x_1_4_3_sb +0 p0_1_4 -1 p1_1_4 >= -4
+1 x_1_8_0 +1 x_1_8_1 +0 x_1_8_2 -1 x_1_8_3 +1 x_1_4_0_sb +1 x_1_4_1_sb +0 x_1_4_2_sb -1 x_1_4_3_sb +0 p0_1_4 -1 p1_1_4 >= -2
+1 x_1_8_0 +0 x_1_8_1 +1 x_1_8_2 +0 x_1_8_3 +0 x_1_4_0_sb +1 x_1_4_1_sb +1 x_1_4_2_sb +1 x_1_4_3_sb +0 p0_1_4 -1 p1_1_4 >= 0
+1 x_1_8_0 +0 x_1_8_1 -1 x_1_8_2 -1 x_1_8_3 -1 x_1_4_0_sb -1 x_1_4_1_sb +0 x_1_4_2_sb -1 x_1_4_3_sb +0 p0_1_4 -1 p1_1_4 >= -5
+0 x_1_8_0 +0 x_1_8_1 +1 x_1_8_2 +1 x_1_8_3 -1 x_1_4_0_sb +0 x_1_4_1_sb -1 x_1_4_2_sb +0 x_1_4_3_sb +0 p0_1_4 -1 p1_1_4 >= -2
+0 x_1_8_0 +0 x_1_8_1 +1 x_1_8_2 +0 x_1_8_3 +1 x_1_4_0_sb -1 x_1_4_1_sb +0 x_1_4_2_sb -1 x_1_4_3_sb +0 p0_1_4 +0 p1_1_4 >= -1
+0 x_1_8_0 -1 x_1_8_1 +0 x_1_8_2 -1 x_1_8_3 +0 x_1_4_0_sb +1 x_1_4_1_sb +0 x_1_4_2_sb +1 x_1_4_3_sb +0 p0_1_4 +1 p1_1_4 >= -1
+0 x_1_8_0 +1 x_1_8_1 +0 x_1_8_2 +1 x_1_8_3 +0 x_1_4_0_sb -1 x_1_4_1_sb +0 x_1_4_2_sb -1 x_1_4_3_sb +0 p0_1_4 +1 p1_1_4 >= -1
+1 x_1_8_0 -1 x_1_8_1 +1 x_1_8_2 -1 x_1_8_3 +1 x_1_4_0_sb +0 x_1_4_1_sb +0 x_1_4_2_sb +0 x_1_4_3_sb +0 p0_1_4 +0 p1_1_4 >= -1
+1 x_1_8_0 +0 x_1_8_1 +0 x_1_8_2 +0 x_1_8_3 +1 x_1_4_0_sb -1 x_1_4_1_sb +1 x_1_4_2_sb -1 x_1_4_3_sb +0 p0_1_4 +0 p1_1_4 >= -1
+0 x_1_8_0 -1 x_1_8_1 +0 x_1_8_2 -1 x_1_8_3 +1 x_1_4_0_sb -1 x_1_4_1_sb -1 x_1_4_2_sb -1 x_1_4_3_sb +0 p0_1_4 +0 p1_1_4 >= -4
+1 x_1_8_0 +0 x_1_8_1 +0 x_1_8_2 +1 x_1_8_3 +0 x_1_4_0_sb -1 x_1_4_1_sb -1 x_1_4_2_sb +1 x_1_4_3_sb +0 p0_1_4 -1 p1_1_4 >= -2
+0 x_1_8_0 +0 x_1_8_1 -1 x_1_8_2 +1 x_1_8_3 -1 x_1_4_0_sb +1 x_1_4_1_sb +0 x_1_4_2_sb -1 x_1_4_3_sb +0 p0_1_4 -1 p1_1_4 >= -3
+0 x_1_8_0 +1 x_1_8_1 +0 x_1_8_2 +1 x_1_8_3 -1 x_1_4_0_sb -1 x_1_4_1_sb +0 x_1_4_2_sb +1 x_1_4_3_sb +0 p0_1_4 -1 p1_1_4 >= -2
-1 x_1_8_0 +1 x_1_8_1 +0 x_1_8_2 -1 x_1_8_3 +0 x_1_4_0_sb +0 x_1_4_1_sb -1 x_1_4_2_sb +1 x_1_4_3_sb +0 p0_1_4 -1 p1_1_4 >= -3
-1 x_1_8_0 +0 x_1_8_1 +0 x_1_8_2 +0 x_1_8_3 -1 x_1_4_0_sb +1 x_1_4_1_sb +0 x_1_4_2_sb -1 x_1_4_3_sb +0 p0_1_4 -1 p1_1_4 >= -3
+0 x_1_8_0 +0 x_1_8_1 -1 x_1_8_2 +0 x_1_8_3 +1 x_1_4_0_sb +1 x_1_4_1_sb +0 x_1_4_2_sb +1 x_1_4_3_sb +0 p0_1_4 +0 p1_1_4 >= 0
+0 x_1_10_0 +0 x_1_10_1 +0 x_1_10_2 +0 x_1_10_3 +0 x_1_5_0_sb +0 x_1_5_1_sb +0 x_1_5_2_sb +0 x_1_5_3_sb -1 p0_1_5 -1 p1_1_5 >= -1
+0 x_1_10_0 +0 x_1_10_1 +0 x_1_10_2 +0 x_1_10_3 +0 x_1_5_0_sb +0 x_1_5_1_sb +0 x_1_5_2_sb -1 x_1_5_3_sb +1 p0_1_5 +1 p1_1_5 >= 0
+0 x_1_10_0 +0 x_1_10_1 +0 x_1_10_2 +0 x_1_10_3 +0 x_1_5_0_sb -1 x_1_5_1_sb +0 x_1_5_2_sb +0 x_1_5_3_sb +1 p0_1_5 +1 p1_1_5 >= 0
+0 x_1_10_0 +0 x_1_10_1 +0 x_1_10_2 +0 x_1_10_3 -1 x_1_5_0_sb +0 x_1_5_1_sb +0 x_1_5_2_sb +0 x_1_5_3_sb +1 p0_1_5 +1 p1_1_5 >= 0
+0 x_1_10_0 +0 x_1_10_1 +0 x_1_10_2 +0 x_1_10_3 +1 x_1_5_0_sb +1 x_1_5_1_sb +1 x_1_5_2_sb +1 x_1_5_3_sb +0 p0_1_5 -1 p1_1_5 >= 0
+0 x_1_10_0 +0 x_1_10_1 +0 x_1_10_2 -1 x_1_10_3 +1 x_1_5_0_sb +1 x_1_5_1_sb +0 x_1_5_2_sb +1 x_1_5_3_sb +0 p0_1_5 +1 p1_1_5 >= 0
-1 x_1_10_0 +0 x_1_10_1 -1 x_1_10_2 +0 x_1_10_3 +1 x_1_5_0_sb +0 x_1_5_1_sb +0 x_1_5_2_sb +1 x_1_5_3_sb +0 p0_1_5 -1 p1_1_5 >= -2
+1 x_1_10_0 +0 x_1_10_1 +1 x_1_10_2 +0 x_1_10_3 +1 x_1_5_0_sb +0 x_1_5_1_sb +1 x_1_5_2_sb +0 x_1_5_3_sb +0 p0_1_5 -1 p1_1_5 >= 0
+0 x_1_10_0 +0 x_1_10_1 +0 x_1_10_2 +1 x_1_10_3 +0 x_1_5_0_sb +1 x_1_5_1_sb -1 x_1_5_2_sb -1 x_1_5_3_sb +0 p0_1_5 -1 p1_1_5 >= -2
-1 x_1_10_0 +0 x_1_10_1 +0 x_1_10_2 -1 x_1_10_3 -1 x_1_5_0_sb +0 x_1_5_1_sb +0 x_1_5_2_sb +1 x_1_5_3_sb +0 p0_1_5 -1 p1_1_5 >= -3
+0 x_1_10_0 +0 x_1_10_1 +0 x_1_10_2 +1 x_1_10_3 -1 x_1_5_0_sb -1 x_1_5_1_sb -1 x_1_5_2_sb +0 x_1_5_3_sb +0 p0_1_5 -1 p1_1_5 >= -3
+1 x_1_10_0 +1 x_1_10_1 +0 x_1_10_2 +1 x_1_10_3 +0 x_1_5_0_sb +0 x_1_5_1_sb +0 x_1_5_2_sb +0 x_1_5_3_sb -1 p0_1_5 +0 p1_1_5 >= 0
+0 x_1_10_0 +0 x_1_10_1 +1 x_1_10_2 +1 x_1_10_3 +0 x_1_5_0_sb -1 x_1_5_1_sb +1 x_1_5_2_sb +0 x_1_5_3_sb +0 p0_1_5 -1 p1_1_5 >= -1
+0 x_1_10_0 +1 x_1_10_1 +0 x_1_10_2 -1 x_1_10_3 -1 x_1_5_0_sb +0 x_1_5_1_sb -1 x_1_5_2_sb +0 x_1_5_3_sb +0 p0_1_5 -1 p1_1_5 >= -3
+0 x_1_10_0 +1 x_1_10_1 +1 x_1_10_2 +0 x_1_10_3 +0 x_1_5_0_sb +0 x_1_5_1_sb +1 x_1_5_2_sb -1 x_1_5_3_sb +0 p0_1_5 -1 p1_1_5 >= -1
-1 x_1_10_0 +0 x_1_10_1 -1 x_1_10_2 +0 x_1_10_3 -1 x_1_5_0_sb +0 x_1_5_1_sb +1 x_1_5_2_sb +0 x_1_5_3_sb +0 p0_1_5 -1 p1_1_5 >= -3
+0 x_1_10_0 -1 x_1_10_1 -1 x_1_10_2 +0 x_1_10_3 +0 x_1_5_0_sb +1 x_1_5_1_sb +0 x_1_5_2_sb +1 x_1_5_3_sb +0 p0_1_5 -1 p1_1_5 >= -2
+0 x_1_10_0 -1 x_1_10_1 +0 x_1_10_2 +0 x_1_10_3 +1 x_1_5_0_sb +1 x_1_5_1_sb +0 x_1_5_2_sb +1 x_1_5_3_sb +0 p0_1_5 +1 p1_1_5 >= 0
-1 x_1_10_0 -1 x_1_10_1 +0 x_1_10_2 +1 x_1_10_3 +0 x_1_5_0_sb +1 x_1_5_1_sb +0 x_1_5_2_sb +1 x_1_5_3_sb +0 p0_1_5 -1 p1_1_5 >= -2
+0 x_1_10_0 -1 x_1_10_1 +0 x_1_10_2 +0 x_1_10_3 +1 x_1_5_0_sb +0 x_1_5_1_sb +1 x_1_5_2_sb +1 x_1_5_3_sb +0 p0_1_5 -1 p1_1_5 >= -1
-1 x_1_10_0 +0 x_1_10_1 -1 x_1_10_2 +0 x_1_10_3 +1 x_1_5_0_sb +1 x_1_5_1_sb +0 x_1_5_2_sb +0 x_1_5_3_sb +0 p0_1_5 -1 p1_1_5 >= -2
+0 x_1_10_0 +1 x_1_10_1 -1 x_1_10_2 -1 x_1_10_3 +0 x_1_5_0_sb +0 x_1_5_1_sb +0 x_1_5_2_sb +1 x_1_5_3_sb +0 p0_1_5 -1 p1_1_5 >= -2
-1 x_1_10_0 -1 x_1_10_1 +0 x_1_10_2 -1 x_1_10_3 +0 x_1_5_0_sb +1 x_1_5_1_sb +0 x_1_5_2_sb -1 x_1_5_3_sb +0 p0_1_5 -1 p1_1_5 >= -4
-1 x_1_10_0 +1 x_1_10_1 +0 x_1_10_2 +1 x_1_10_3 +0 x_1_5_0_sb +1 x_1_5_1_sb +0 x_1_5_2_sb +1 x_1_5_3_sb +0 p0_1_5 +1 p1_1_5 >= 0
+0 x_1_10_0 +0 x_1_10_1 +0 x_1_10_2 +0 x_1_10_3 +1 x_1_5_0_sb -1 x_1_5_1_sb +0 x_1_5_2_sb -1 x_1_5_3_sb +0 p0_1_5 +1 p1_1_5 >= -1
+1 x_1_10_0 +0 x_1_10_1 +1 x_1_10_2 +0 x_1_10_3 +1 x_1_5_0_sb -1 x_1_5_1_sb +0 x_1_5_2_sb +0 x_1_5_3_sb +0 p0_1_5 -1 p1_1_5 >= -1
+0 x_1_10_0 +1 x_1_10_1 +0 x_1_10_2 +1 x_1_10_3 +0 x_1_5_0_sb -1 x_1_5_1_sb -1 x_1_5_2_sb +0 x_1_5_3_sb +0 p0_1_5 -1 p1_1_5 >= -2
+1 x_1_10_0 -1 x_1_10_1 +0 x_1_10_2 -1 x_1_10_3 +0 x_1_5_0_sb +0 x_1_5_1_sb +1 x_1_5_2_sb +0 x_1_5_3_sb +0 p0_1_5 +0 p1_1_5 >= -1
+1 x_1_10_0 -1 x_1_10_1 -1 x_1_10_2 +0 x_1_10_3 +0 x_1_5_0_sb +0 x_1_5_1_sb +1 x_1_5_2_sb -1 x_1_5_3_sb +0 p0_1_5 -1 p1_1_5 >= -3
+1 x_1_10_0 -1 x_1_10_1 +0 x_1_10_2 -1 x_1_10_3 +0 x_1_5_0_sb +0 x_1_5_1_sb +0 x_1_5_2_sb +0 x_1_5_3_sb +0 p0_1_5 +1 p1_1_5 >= -1
+1 x_1_10_0 +0 x_1_10_1 +0 x_1_10_2 +0 x_1_10_3 -1 x_1_5_0_sb +1 x_1_5_1_sb +0 x_1_5_2_sb -1 x_1_5_3_sb +0 p0_1_5 +1 p1_1_5 >= -1
+1 x_1_10_0 +0 x_1_10_1 +0 x_1_10_2 +0 x_1_10_3 -1 x_1_5_0_sb -1 x_1_5_1_sb +0 x_1_5_2_sb +1 x_1_5_3_sb +0 p0_1_5 +1 p1_1_5 >= -1
-1 x_1_10_0 -1 x_1_10_1 +0 x_1_10_2 +1 x_1_10_3 +1 x_1_5_0_sb +0 x_1_5_1_sb +0 x_1_5_2_sb +0 x_1_5_3_sb +0 p0_1_5 +1 p1_1_5 >= -1
-1 x_1_10_0 +1 x_1_10_1 +0 x_1_10_2 -1 x_1_10_3 +1 x_1_5_0_sb +0 x_1_5_1_sb +0 x_1_5_2_sb +0 x_1_5_3_sb +0 p0_1_5 +1 p1_1_5 >= -1
+0 x_1_10_0 -1 x_1_10_1 +0 x_1_10_2 -1 x_1_10_3 +0 x_1_5_0_sb -1 x_1_5_1_sb +0 x_1_5_2_sb -1 x_1_5_3_sb +0 p0_1_5 +1 p1_1_5 >= -3
+1 x_1_10_0 +1 x_1_10_1 +0 x_1_10_2 +1 x_1_10_3 +0 x_1_5_0_sb +0 x_1_5_1_sb -1 x_1_5_2_sb +0 x_1_5_3_sb +0 p0_1_5 +0 p1_1_5 >= 0
-1 x_1_10_0 +0 x_1_10_1 +1 x_1_10_2 -1 x_1_10_3 +0 x_1_5_0_sb -1 x_1_5_1_sb -1 x_1_5_2_sb +0 x_1_5_3_sb +0 p0_1_5 -1 p1_1_5 >= -4
+1 x_1_10_0 +1 x_1_10_1 +0 x_1_10_2 -1 x_1_10_3 +1 x_1_5_0_sb +1 x_1_5_1_sb +0 x_1_5_2_sb -1 x_1_5_3_sb +0 p0_1_5 -1 p1_1_5 >= -2
+1 x_1_10_0 +0 x_1_10_1 +1 x_1_10_2 +0 x_1_10_3 +0 x_1_5_0_sb +1 x_1_5_1_sb +1 x_1_5_2_sb +1 x_1_5_3_sb +0 p0_1_5 -1 p1_1_5 >= 0
+1 x_1_10_0 +0 x_1_10_1 -1 x_1_10_2 -1 x_1_10_3 -1 x_1_5_0_sb -1 x_1_5_1_sb +0 x_1_5_2_sb -1 x_1_5_3_sb +0 p0_1_5 -1 p1_1_5 >= -5
+0 x_1_10_0 +0 x_1_10_1 +1 x_1_10_2 +1 x_1_10_3 -1 x_1_5_0_sb +0 x_1_5_1_sb -1 x_1_5_2_sb +0 x_1_5_3_sb +0 p0_1_5 -1 p1_1_5 >= -2
+0 x_1_10_0 +0 x_1_10_1 +1 x_1_10_2 +0 x_1_10_3 +1 x_1_5_0_sb -1 x_1_5_1_sb +0 x_1_5_2_sb -1 x_1_5_3_sb +0 p0_1_5 +0 p1_1_5 >= -1
+0 x_1_10_0 -1 x_1_10_1 +0 x_1_10_2 -1 x_1_10_3 +0 x_1_5_0_sb +1 x_1_5_1_sb +0 x_1_5_2_sb +1 x_1_5_3_sb +0 p0_1_5 +1 p1_1_5 >= -1
+0 x_1_10_0 +1 x_1_10_1 +0 x_1_10_2 +1 x_1_10_3 +0 x_1_5_0_sb -1 x_1_5_1_sb +0 x_1_5_2_sb -1 x_1_5_3_sb +0 p0_1_5 +1 p1_1_5 >= -1
+1 x_1_10_0 -1 x_1_10_1 +1 x_1_10_2 -1 x_1_10_3 +1 x_1_5_0_sb +0 x_1_5_1_sb +0 x_1_5_2_sb +0 x_1_5_3_sb +0 p0_1_5 +0 p1_1_5 >= -1
+1 x_1_10_0 +0 x_1_10_1 +0 x_1_10_2 +0 x_1_10_3 +1 x_1_5_0_sb -1 x_1_5_1_sb +1 x_1_5_2_sb -1 x_1_5_3_sb +0 p0_1_5 +0 p1_1_5 >= -1
+0 x_1_10_0 -1 x_1_10_1 +0 x_1_10_2 -1 x_1_10_3 +1 x_1_5_0_sb -1 x_1_5_1_sb -1 x_1_5_2_sb -1 x_1_5_3_sb +0 p0_1_5 +0 p1_1_5 >= -4
+1 x_1_10_0 +0 x_1_10_1 +0 x_1_10_2 +1 x_1_10_3 +0 x_1_5_0_sb -1 x_1_5_1_sb -1 x_1_5_2_sb +1 x_1_5_3_sb +0 p0_1_5 -1 p1_1_5 >= -2
+0 x_1_10_0 +0 x_1_10_1 -1 x_1_10_2 +1 x_1_10_3 -1 x_1_5_0_sb +1 x_1_5_1_sb +0 x_1_5_2_sb -1 x_1_5_3_sb +0 p0_1_5 -1 p1_1_5 >= -3
+0 x_1_10_0 +1 x_1_10_1 +0 x_1_10_2 +1 x_1_10_3 -1 x_1_5_0_sb -1 x_1_5_1_sb +0 x_1_5_2_sb +1 x_1_5_3_sb +0 p0_1_5 -1 p1_1_5 >= -2
-1 x_1_10_0 +1 x_1_10_1 +0 x_1_10_2 -1 x_1_10_3 +0 x_1_5_0_sb +0 x_1_5_1_sb -1 x_1_5_2_sb +1 x_1_5_3_sb +0 p0_1_5 -1 p1_1_5 >= -3
-1 x_1_10_0 +0 x_1_10_1 +0 x_1_10_2 +0 x_1_10_3 -1 x_1_5_0_sb +1 x_1_5_1_sb +0 x_1_5_2_sb -1 x_1_5_3_sb +0 p0_1_5 -1 p1_1_5 >= -3
+0 x_1_10_0 +0 x_1_10_1 -1 x_1_10_2 +0 x_1_10_3 +1 x_1_5_0_sb +1 x_1_5_1_sb +0 x_1_5_2_sb +1 x_1_5_3_sb +0 p0_1_5 +0 p1_1_5 >= 0
+0 x_1_12_0 +0 x_1_12_1 +0 x_1_12_2 +0 x_1_12_3 +0 x_1_6_0_sb +0 x_1_6_1_sb +0 x_1_6_2_sb +0 x_1_6_3_sb -1 p0_1_6 -1 p1_1_6 >= -1
+0 x_1_12_0 +0 x_1_12_1 +0 x_1_12_2 +0 x_1_12_3 +0 x_1_6_0_sb +0 x_1_6_1_sb +0 x_1_6_2_sb -1 x_1_6_3_sb +1 p0_1_6 +1 p1_1_6 >= 0
+0 x_1_12_0 +0 x_1_12_1 +0 x_1_12_2 +0 x_1_12_3 +0 x_1_6_0_sb -1 x_1_6_1_sb +0 x_1_6_2_sb +0 x_1_6_3_sb +1 p0_1_6 +1 p1_1_6 >= 0
+0 x_1_12_0 +0 x_1_12_1 +0 x_1_12_2 +0 x_1_12_3 -1 x_1_6_0_sb +0 x_1_6_1_sb +0 x_1_6_2_sb +0 x_1_6_3_sb +1 p0_1_6 +1 p1_1_6 >= 0
+0 x_1_12_0 +0 x_1_12_1 +0 x_1_12_2 +0 x_1_12_3 +1 x_1_6_0_sb +1 x_1_6_1_sb +1 x_1_6_2_sb +1 x_1_6_3_sb +0 p0_1_6 -1 p1_1_6 >= 0
+0 x_1_12_0 +0 x_1_12_1 +0 x_1_12_2 -1 x_1_12_3 +1 x_1_6_0_sb +1 x_1_6_1_sb +0 x_1_6_2_sb +1 x_1_6_3_sb +0 p0_1_6 +1 p1_1_6 >= 0
-1 x_1_12_0 +0 x_1_12_1 -1 x_1_12_2 +0 x_1_12_3 +1 x_1_6_0_sb +0 x_1_6_1_sb +0 x_1_6_2_sb +1 x_1_6_3_sb +0 p0_1_6 -1 p1_1_6 >= -2
+1 x_1_12_0 +0 x_1_12_1 +1 x_1_12_2 +0 x_1_12_3 +1 x_1_6_0_sb +0 x_1_6_1_sb +1 x_1_6_2_sb +0 x_1_6_3_sb +0 p0_1_6 -1 p1_1_6 >= 0
+0 x_1_12_0 +0 x_1_12_1 +0 x_1_12_2 +1 x_1_12_3 +0 x_1_6_0_sb +1 x_1_6_1_sb -1 x_1_6_2_sb -1 x_1_6_3_sb +0 p0_1_6 -1 p1_1_6 >= -2
-1 x_1_12_0 +0 x_1_12_1 +0 x_1_12_2 -1 x_1_12_3 -1 x_1_6_0_sb +0 x_1_6_1_sb +0 x_1_6_2_sb +1 x_1_6_3_sb +0 p0_1_6 -1 p1_1_6 >= -3
+0 x_1_12_0 +0 x_1_12_1 +0 x_1_12_2 +1 x_1_12_3 -1 x_1_6_0_sb -1 x_1_6_1_sb -1 x_1_6_2_sb +0 x_1_6_3_sb +0 p0_1_6 -1 p1_1_6 >= -3
+1 x_1_12_0 +1 x_1_12_1 +0 x_1_12_2 +1 x_1_12_3 +0 x_1_6_0_sb +0 x_1_6_1_sb +0 x_1_6_2_sb +0 x_1_6_3_sb -1 p0_1_6 +0 p1_1_6 >= 0
+0 x_1_12_0 +0 x_1_12_1 +1 x_1_12_2 +1 x_1_12_3 +0 x_1_6_0_sb -1 x_1_6_1_sb +1 x_1_6_2_sb +0 x_1_6_3_sb +0 p0_1_6 -1 p1_1_6 >= -1
+0 x_1_12_0 +1 x_1_12_1 +0 x_1_12_2 -1 x_1_12_3 -1 x_1_6_0_sb +0 x_1_6_1_sb -1 x_1_6_2_sb +0 x_1_6_3_sb +0 p0_1_6 -1 p1_1_6 >= -3
+0 x_1_12_0 +1 x_1_12_1 +1 x_1_12_2 +0 x_1_12_3 +0 x_1_6_0_sb +0 x_1_6_1_sb +1 x_1_6_2_sb -1 x_1_6_3_sb +0 p0_1_6 -1 p1_1_6 >= -1
-1 x_1_12_0 +0 x_1_12_1 -1 x_1_12_2 +0 x_1_12_3 -1 x_1_6_0_sb +0 x_1_6_1_sb +1 x_1_6_2_sb +0 x_1_6_3_sb +0 p0_1_6 -1 p1_1_6 >= -3
+0 x_1_12_0 -1 x_1_12_1 -1 x_1_12_2 +0 x_1_12_3 +0 x_1_6_0_sb +1 x_1_6_1_sb +0 x_1_6_2_sb +1 x_1_6_3_sb +0 p0_1_6 -1 p1_1_6 >= -2
+0 x_1_12_0 -1 x_1_12_1 +0 x_1_12_2 +0 x_1_12_3 +1 x_1_6_0_sb +1 x_1_6_1_sb +0 x_1_6_2_sb +1 x_1_6_3_sb +0 p0_1_6 +1 p1_1_6 >= 0
-1 x_1_12_0 -1 x_1_12_1 +0 x_1_12_2 +1 x_1_12_3 +0 x_1_6_0_sb +1 x_1_6_1_sb +0 x_1_6_2_sb +1 x_1_6_3_sb +0 p0_1_6 -1 p1_1_6 >= -2
+0 x_1_12_0 -1 x_1_12_1 +0 x_1_12_2 +0 x_1_12_3 +1 x_1_6_0_sb +0 x_1_6_1_sb +1 x_1_6_2_sb +1 x_1_6_3_sb +0 p0_1_6 -1 p1_1_6 >= -1
-1 x_1_12_0 +0 x_1_12_1 -1 x_1_12_2 +0 x_1_12_3 +1 x_1_6_0_sb +1 x_1_6_1_sb +0 x_1_6_2_sb +0 x_1_6_3_sb +0 p0_1_6 -1 p1_1_6 >= -2
+0 x_1_12_0 +1 x_1_12_1 -1 x_1_12_2 -1 x_1_12_3 +0 x_1_6_0_sb +0 x_1_6_1_sb +0 x_1_6_2_sb +1 x_1_6_3_sb +0 p0_1_6 -1 p1_1_6 >= -2
-1 x_1_12_0 -1 x_1_12_1 +0 x_1_12_2 -1 x_1_12_3 +0 x_1_6_0_sb +1 x_1_6_1_sb +0 x_1_6_2_sb -1 x_1_6_3_sb +0 p0_1_6 -1 p1_1_6 >= -4
-1 x_1_12_0 +1 x_1_12_1 +0 x_1_12_2 +1 x_1_12_3 +0 x_1_6_0_sb +1 x_1_6_1_sb +0 x_1_6_2_sb +1 x_1_6_3_sb +0 p0_1_6 +1 p1_1_6 >= 0
+0 x_1_12_0 +0 x_1_12_1 +0 x_1_12_2 +0 x_1_12_3 +1 x_1_6_0_sb -1 x_1_6_1_sb +0 x_1_6_2_sb -1 x_1_6_3_sb +0 p0_1_6 +1 p1_1_6 >= -1
+1 x_1_12_0 +0 x_1_12_1 +1 x_1_12_2 +0 x_1_12_3 +1 x_1_6_0_sb -1 x_1_6_1_sb +0 x_1_6_2_sb +0 x_1_6_3_sb +0 p0_1_6 -1 p1_1_6 >= -1
+0 x_1_12_0 +1 x_1_12_1 +0 x_1_12_2 +1 x_1_12_3 +0 x_1_6_0_sb -1 x_1_6_1_sb -1 x_1_6_2_sb +0 x_1_6_3_sb +0 p0_1_6 -1 p1_1_6 >= -2
+1 x_1_12_0 -1 x_1_12_1 +0 x_1_12_2 -1 x_1_12_3 +0 x_1_6_0_sb +0 x_1_6_1_sb +1 x_1_6_2_sb +0 x_1_6_3_sb +0 p0_1_6 +0 p1_1_6 >= -1
+1 x_1_12_0 -1 x_1_12_1 -1 x_1_12_2 +0 x_1_12_3 +0 x_1_6_0_sb +0 x_1_6_1_sb +1 x_1_6_2_sb -1 x_1_6_3_sb +0 p0_1_6 -1 p1_1_6 >= -3
+1 x_1_12_0 -1 x_1_12_1 +0 x_1_12_2 -1 x_1_12_3 +0 x_1_6_0_sb +0 x_1_6_1_sb +0 x_1_6_2_sb +0 x_1_6_3_sb +0 p0_1_6 +1 p1_1_6 >= -1
+1 x_1_12_0 +0 x_1_12_1 +0 x_1_12_2 +0 x_1_12_3 -1 x_1_6_0_sb +1 x_1_6_1_sb +0 x_1_6_2_sb -1 x_1_6_3_sb +0 p0_1_6 +1 p1_1_6 >= -1
+1 x_1_12_0 +0 x_1_12_1 +0 x_1_12_2 +0 x_1_12_3 -1 x_1_6_0_sb -1 x_1_6_1_sb +0 x_1_6_2_sb +1 x_1_6_3_sb +0 p0_1_6 +1 p1_1_6 >= -1
-1 x_1_12_0 -1 x_1_12_1 +0 x_1_12_2 +1 x_1_12_3 +1 x_1_6_0_sb +0 x_1_6_1_sb +0 x_1_6_2_sb +0 x_1_6_3_sb +0 p0_1_6 +1 p1_1_6 >= -1
-1 x_1_12_0 +1 x_1_12_1 +0 x_1_12_2 -1 x_1_12_3 +1 x_1_6_0_sb +0 x_1_6_1_sb +0 x_1_6_2_sb +0 x_1_6_3_sb +0 p0_1_6 +1 p1_1_6 >= -1
+0 x_1_12_0 -1 x_1_12_1 +0 x_1_12_2 -1 x_1_12_3 +0 x_1_6_0_sb -1 x_1_6_1_sb +0 x_1_6_2_sb -1 x_1_6_3_sb +0 p0_1_6 +1 p1_1_6 >= -3
+1 x_1_12_0 +1 x_1_12_1 +0 x_1_12_2 +1 x_1_12_3 +0 x_1_6_0_sb +0 x_1_6_1_sb -1 x_1_6_2_sb +0 x_1_6_3_sb +0 p0_1_6 +0 p1_1_6 >= 0
-1 x_1_12_0 +0 x_1_12_1 +1 x_1_12_2 -1 x_1_12_3 +0 x_1_6_0_sb -1 x_1_6_1_sb -1 x_1_6_2_sb +0 x_1_6_3_sb +0 p0_1_6 -1 p1_1_6 >= -4
+1 x_1_12_0 +1 x_1_12_1 +0 x_1_12_2 -1 x_1_12_3 +1 x_1_6_0_sb +1 x_1_6_1_sb +0 x_1_6_2_sb -1 x_1_6_3_sb +0 p0_1_6 -1 p1_1_6 >= -2
+1 x_1_12_0 +0 x_1_12_1 +1 x_1_12_2 +0 x_1_12_3 +0 x_1_6_0_sb +1 x_1_6_1_sb +1 x_1_6_2_sb +1 x_1_6_3_sb +0 p0_1_6 -1 p1_1_6 >= 0
+1 x_1_12_0 +0 x_1_12_1 -1 x_1_12_2 -1 x_1_12_3 -1 x_1_6_0_sb -1 x_1_6_1_sb +0 x_1_6_2_sb -1 x_1_6_3_sb +0 p0_1_6 -1 p1_1_6 >= -5
+0 x_1_12_0 +0 x_1_12_1 +1 x_1_12_2 +1 x_1_12_3 -1 x_1_6_0_sb +0 x_1_6_1_sb -1 x_1_6_2_sb +0 x_1_6_3_sb +0 p0_1_6 -1 p1_1_6 >= -2
+0 x_1_12_0 +0 x_1_12_1 +1 x_1_12_2 +0 x_1_12_3 +1 x_1_6_0_sb -1 x_1_6_1_sb +0 x_1_6_2_sb -1 x_1_6_3_sb +0 p0_1_6 +0 p1_1_6 >= -1
+0 x_1_12_0 -1 x_1_12_1 +0 x_1_12_2 -1 x_1_12_3 +0 x_1_6_0_sb +1 x_1_6_1_sb +0 x_1_6_2_sb +1 x_1_6_3_sb +0 p0_1_6 +1 p1_1_6 >= -1
+0 x_1_12_0 +1 x_1_12_1 +0 x_1_12_2 +1 x_1_12_3 +0 x_1_6_0_sb -1 x_1_6_1_sb +0 x_1_6_2_sb -1 x_1_6_3_sb +0 p0_1_6 +1 p1_1_6 >= -1
+1 x_1_12_0 -1 x_1_12_1 +1 x_1_12_2 -1 x_1_12_3 +1 x_1_6_0_sb +0 x_1_6_1_sb +0 x_1_6_2_sb +0 x_1_6_3_sb +0 p0_1_6 +0 p1_1_6 >= -1
+1 x_1_12_0 +0 x_1_12_1 +0 x_1_12_2 +0 x_1_12_3 +1 x_1_6_0_sb -1 x_1_6_1_sb +1 x_1_6_2_sb -1 x_1_6_3_sb +0 p0_1_6 +0 p1_1_6 >= -1
+0 x_1_12_0 -1 x_1_12_1 +0 x_1_12_2 -1 x_1_12_3 +1 x_1_6_0_sb -1 x_1_6_1_sb -1 x_1_6_2_sb -1 x_1_6_3_sb +0 p0_1_6 +0 p1_1_6 >= -4
+1 x_1_12_0 +0 x_1_12_1 +0 x_1_12_2 +1 x_1_12_3 +0 x_1_6_0_sb -1 x_1_6_1_sb -1 x_1_6_2_sb +1 x_1_6_3_sb +0 p0_1_6 -1 p1_1_6 >= -2
+0 x_1_12_0 +0 x_1_12_1 -1 x_1_12_2 +1 x_1_12_3 -1 x_1_6_0_sb +1 x_1_6_1_sb +0 x_1_6_2_sb -1 x_1_6_3_sb +0 p0_1_6 -1 p1_1_6 >= -3
+0 x_1_12_0 +1 x_1_12_1 +0 x_1_12_2 +1 x_1_12_3 -1 x_1_6_0_sb -1 x_1_6_1_sb +0 x_1_6_2_sb +1 x_1_6_3_sb +0 p0_1_6 -1 p1_1_6 >= -2
-1 x_1_12_0 +1 x_1_12_1 +0 x_1_12_2 -1 x_1_12_3 +0 x_1_6_0_sb +0 x_1_6_1_sb -1 x_1_6_2_sb +1 x_1_6_3_sb +0 p0_1_6 -1 p1_1_6 >= -3
-1 x_1_12_0 +0 x_1_12_1 +0 x_1_12_2 +0 x_1_12_3 -1 x_1_6_0_sb +1 x_1_6_1_sb +0 x_1_6_2_sb -1 x_1_6_3_sb +0 p0_1_6 -1 p1_1_6 >= -3
+0 x_1_12_0 +0 x_1_12_1 -1 x_1_12_2 +0 x_1_12_3 +1 x_1_6_0_sb +1 x_1_6_1_sb +0 x_1_6_2_sb +1 x_1_6_3_sb +0 p0_1_6 +0 p1_1_6 >= 0
+0 x_1_14_0 +0 x_1_14_1 +0 x_1_14_2 +0 x_1_14_3 +0 x_1_7_0_sb +0 x_1_7_1_sb +0 x_1_7_2_sb +0 x_1_7_3_sb -1 p0_1_7 -1 p1_1_7 >= -1
+0 x_1_14_0 +0 x_1_14_1 +0 x_1_14_2 +0 x_1_14_3 +0 x_1_7_0_sb +0 x_1_7_1_sb +0 x_1_7_2_sb -1 x_1_7_3_sb +1 p0_1_7 +1 p1_1_7 >= 0
+0 x_1_14_0 +0 x_1_14_1 +0 x_1_14_2 +0 x_1_14_3 +0 x_1_7_0_sb -1 x_1_7_1_sb +0 x_1_7_2_sb +0 x_1_7_3_sb +1 p0_1_7 +1 p1_1_7 >= 0
+0 x_1_14_0 +0 x_1_14_1 +0 x_1_14_2 +0 x_1_14_3 -1 x_1_7_0_sb +0 x_1_7_1_sb +0 x_1_7_2_sb +0 x_1_7_3_sb +1 p0_1_7 +1 p1_1_7 >= 0
+0 x_1_14_0 +0 x_1_14_1 +0 x_1_14_2 +0 x_1_14_3 +1 x_1_7_0_sb +1 x_1_7_1_sb +1 x_1_7_2_sb +1 x_1_7_3_sb +0 p0_1_7 -1 p1_1_7 >= 0
+0 x_1_14_0 +0 x_1_14_1 +0 x_1_14_2 -1 x_1_14_3 +1 x_1_7_0_sb +1 x_1_7_1_sb +0 x_1_7_2_sb +1 x_1_7_3_sb +0 p0_1_7 +1 p1_1_7 >= 0
-1 x_1_14_0 +0 x_1_14_1 -1 x_1_14_2 +0 x_1_14_3 +1 x_1_7_0_sb +0 x_1_7_1_sb +0 x_1_7_2_sb +1 x_1_7_3_sb +0 p0_1_7 -1 p1_1_7 >= -2
+1 x_1_14_0 +0 x_1_14_1 +1 x_1_14_2 +0 x_1_14_3 +1 x_1_7_0_sb +0 x_1_7_1_sb +1 x_1_7_2_sb +0 x_1_7_3_sb +0 p0_1_7 -1 p1_1_7 >= 0
+0 x_1_14_0 +0 x_1_14_1 +0 x_1_14_2 +1 x_1_14_3 +0 x_1_7_0_sb +1 x_1_7_1_sb -1 x_1_7_2_sb -1 x_1_7_3_sb +0 p0_1_7 -1 p1_1_7 >= -2
-1 x_1_14_0 +0 x_1_14_1 +0 x_1_14_2 -1 x_1_14_3 -1 x_1_7_0_sb +0 x_1_7_1_sb +0 x_1_7_2_sb +1 x_1_7_3_sb +0 p0_1_7 -1 p1_1_7 >= -3
+0 x_1_14_0 +0 x_1_14_1 +0 x_1_14_2 +1 x_1_14_3 -1 x_1_7_0_sb -1 x_1_7_1_sb -1 x_1_7_2_sb +0 x_1_7_3_sb +0 p0_1_7 -1 p1_1_7 >= -3
+1 x_1_14_0 +1 x_1_14_1 +0 x_1_14_2 +1 x_1_14_3 +0 x_1_7_0_sb +0 x_1_7_1_sb +0 x_1_7_2_sb +0 x_1_7_3_sb -1 p0_1_7 +0 p1_1_7 >= 0
+0 x_1_14_0 +0 x_1_14_1 +1 x_1_14_2 +1 x_1_14_3 +0 x_1_7_0_sb -1 x_1_7_1_sb +1 x_1_7_2_sb +0 x_1_7_3_sb +0 p0_1_7 -1 p1_1_7 >= -1
+0 x_1_14_0 +1 x_1_14_1 +0 x_1_14_2 -1 x_1_14_3 -1 x_1_7_0_sb +0 x_1_7_1_sb -1 x_1_7_2_sb +0 x_1_7_3_sb +0 p0_1_7 -1 p1_1_7 >= -3
+0 x_1_14_0 +1 x_1_14_1 +1 x_1_14_2 +0 x_1_14_3 +0 x_1_7_0_sb +0 x_1_7_1_sb +1 x_1_7_2_sb -1 x_1_7_3_sb +0 p0_1_7 -1 p1_1_7 >= -1
-1 x_1_14_0 +0 x_1_14_1 -1 x_1_14_2 +0 x_1_14_3 -1 x_1_7_0_sb +0 x_1_7_1_sb +1 x_1_7_2_sb +0 x_1_7_3_sb +0 p0_1_7 -1 p1_1_7 >= -3
+0 x_1_14_0 -1 x_1_14_1 -1 x_1_14_2 +0 x_1_14_3 +0 x_1_7_0_sb +1 x_1_7_1_sb +0 x_1_7_2_sb +1 x_1_7_3_sb +0 p0_1_7 -1 p1_1_7 >= -2
+0 x_1_14_0 -1 x_1_14_1 +0 x_1_14_2 +0 x_1_14_3 +1 x_1_7_0_sb +1 x_1_7_1_sb +0 x_1_7_2_sb +1 x_1_7_3_sb +0 p0_1_7 +1 p1_1_7 >= 0
-1 x_1_14_0 -1 x_1_14_1 +0 x_1_14_2 +1 x_1_14_3 +0 x_1_7_0_sb +1 x_1_7_1_sb +0 x_1_7_2_sb +1 x_1_7_3_sb +0 p0_1_7 -1 p1_1_7 >= -2
+0 x_1_14_0 -1 x_1_14_1 +0 x_1_14_2 +0 x_1_14_3 +1 x_1_7_0_sb +0 x_1_7_1_sb +1 x_1_7_2_sb +1 x_1_7_3_sb +0 p0_1_7 -1 p1_1_7 >= -1
-1 x_1_14_0 +0 x_1_14_1 -1 x_1_14_2 +0 x_1_14_3 +1 x_1_7_0_sb +1 x_1_7_1_sb +0 x_1_7_2_sb +0 x_1_7_3_sb +0 p0_1_7 -1 p1_1_7 >= -2
+0 x_1_14_0 +1 x_1_14_1 -1 x_1_14_2 -1 x_1_14_3 +0 x_1_7_0_sb +0 x_1_7_1_sb +0 x_1_7_2_sb +1 x_1_7_3_sb +0 p0_1_7 -1 p1_1_7 >= -2
-1 x_1_14_0 -1 x_1_14_1 +0 x_1_14_2 -1 x_1_14_3 +0 x_1_7_0_sb +1 x_1_7_1_sb +0 x_1_7_2_sb -1 x_1_7_3_sb +0 p0_1_7 -1 p1_1_7 >= -4
-1 x_1_14_0 +1 x_1_14_1 +0 x_1_14_2 +1 x_1_14_3 +0 x_1_7_0_sb +1 x_1_7_1_sb +0 x_1_7_2_sb +1 x_1_7_3_sb +0 p0_1_7 +1 p1_1_7 >= 0
+0 x_1_14_0 +0 x_1_14_1 +0 x_1_14_2 +0 x_1_14_3 +1 x_1_7_0_sb -1 x_1_7_1_sb +0 x_1_7_2_sb -1 x_1_7_3_sb +0 p0_1_7 +1 p1_1_7 >= -1
+1 x_1_14_0 +0 x_1_14_1 +1 x_1_14_2 +0 x_1_14_3 +1 x_1_7_0_sb -1 x_1_7_1_sb +0 x_1_7_2_sb +0 x_1_7_3_sb +0 p0_1_7 -1 p1_1_7 >= -1
+0 x_1_14_0 +1 x_1_14_1 +0 x_1_14_2 +1 x_1_14_3 +0 x_1_7_0_sb -1 x_1_7_1_sb -1 x_1_7_2_sb +0 x_1_7_3_sb +0 p0_1_7 -1 p1_1_7 >= -2
+1 x_1_14_0 -1 x_1_14_1 +0 x_1_14_2 -1 x_1_14_3 +0 x_1_7_0_sb +0 x_1_7_1_sb +1 x_1_7_2_sb +0 x_1_7_3_sb +0 p0_1_7 +0 p1_1_7 >= -1
+1 x_1_14_0 -1 x_1_14_1 -1 x_1_14_2 +0 x_1_14_3 +0 x_1_7_0_sb +0 x_1_7_1_sb +1 x_1_7_2_sb -1 x_1_7_3_sb +0 p0_1_7 -1 p1_1_7 >= -3
+1 x_1_14_0 -1 x_1_14_1 +0 x_1_14_2 -1 x_1_14_3 +0 x_1_7_0_sb +0 x_1_7_1_sb +0 x_1_7_2_sb +0 x_1_7_3_sb +0 p0_1_7 +1 p1_1_7 >= -1
+1 x_1_14_0 +0 x_1_14_1 +0 x_1_14_2 +0 x_1_14_3 -1 x_1_7_0_sb +1 x_1_7_1_sb +0 x_1_7_2_sb -1 x_1_7_3_sb +0 p0_1_7 +1 p1_1_7 >= -1
+1 x_1_14_0 +0 x_1_14_1 +0 x_1_14_2 +0 x_1_14_3 -1 x_1_7_0_sb -1 x_1_7_1_sb +0 x_1_7_2_sb +1 x_1_7_3_sb +0 p0_1_7 +1 p1_1_7 >= -1
-1 x_1_14_0 -1 x_1_14_1 +0 x_1_14_2 +1 x_1_14_3 +1 x_1_7_0_sb +0 x_1_7_1_sb +0 x_1_7_2_sb +0 x_1_7_3_sb +0 p0_1_7 +1 p1_1_7 >= -1
-1 x_1_14_0 +1 x_1_14_1 +0 x_1_14_2 -1 x_1_14_3 +1 x_1_7_0_sb +0 x_1_7_1_sb +0 x_1_7_2_sb +0 x_1_7_3_sb +0 p0_1_7 +1 p1_1_7 >= -1
+0 x_1_14_0 -1 x_1_14_1 +0 x_1_14_2 -1 x_1_14_3 +0 x_1_7_0_sb -1 x_1_7_1_sb +0 x_1_7_2_sb -1 x_1_7_3_sb +0 p0_1_7 +1 p1_1_7 >= -3
+1 x_1_14_0 +1 x_1_14_1 +0 x_1_14_2 +1 x_1_14_3 +0 x_1_7_0_sb +0 x_1_7_1_sb -1 x_1_7_2_sb +0 x_1_7_3_sb +0 p0_1_7 +0 p1_1_7 >= 0
-1 x_1_14_0 +0 x_1_14_1 +1 x_1_14_2 -1 x_1_14_3 +0 x_1_7_0_sb -1 x_1_7_1_sb -1 x_1_7_2_sb +0 x_1_7_3_sb +0 p0_1_7 -1 p1_1_7 >= -4
+1 x_1_14_0 +1 x_1_14_1 +0 x_1_14_2 -1 x_1_14_3 +1 x_1_7_0_sb +1 x_1_7_1_sb +0 x_1_7_2_sb -1 x_1_7_3_sb +0 p0_1_7 -1 p1_1_7 >= -2
+1 x_1_14_0 +0 x_1_14_1 +1 x_1_14_2 +0 x_1_14_3 +0 x_1_7_0_sb +1 x_1_7_1_sb +1 x_1_7_2_sb +1 x_1_7_3_sb +0 p0_1_7 -1 p1_1_7 >= 0
+1 x_1_14_0 +0 x_1_14_1 -1 x_1_14_2 -1 x_1_14_3 -1 x_1_7_0_sb -1 x_1_7_1_sb +0 x_1_7_2_sb -1 x_1_7_3_sb +0 p0_1_7 -1 p1_1_7 >= -5
+0 x_1_14_0 +0 x_1_14_1 +1 x_1_14_2 +1 x_1_14_3 -1 x_1_7_0_sb +0 x_1_7_1_sb -1 x_1_7_2_sb +0 x_1_7_3_sb +0 p0_1_7 -1 p1_1_7 >= -2
+0 x_1_14_0 +0 x_1_14_1 +1 x_1_14_2 +0 x_1_14_3 +1 x_1_7_0_sb -1 x_1_7_1_sb +0 x_1_7_2_sb -1 x_1_7_3_sb +0 p0_1_7 +0 p1_1_7 >= -1
+0 x_1_14_0 -1 x_1_14_1 +0 x_1_14_2 -1 x_1_14_3 +0 x_1_7_0_sb +1 x_1_7_1_sb +0 x_1_7_2_sb +1 x_1_7_3_sb +0 p0_1_7 +1 p1_1_7 >= -1
+0 x_1_14_0 +1 x_1_14_1 +0 x_1_14_2 +1 x_1_14_3 +0 x_1_7_0_sb -1 x_1_7_1_sb +0 x_1_7_2_sb -1 x_1_7_3_sb +0 p0_1_7 +1 p1_1_7 >= -1
+1 x_1_14_0 -1 x_1_14_1 +1 x_1_14_2 -1 x_1_14_3 +1 x_1_7_0_sb +0 x_1_7_1_sb +0 x_1_7_2_sb +0 x_1_7_3_sb +0 p0_1_7 +0 p1_1_7 >= -1
+1 x_1_14_0 +0 x_1_14_1 +0 x_1_14_2 +0 x_1_14_3 +1 x_1_7_0_sb -1 x_1_7_1_sb +1 x_1_7_2_sb -1 x_1_7_3_sb +0 p0_1_7 +0 p1_1_7 >= -1
+0 x_1_14_0 -1 x_1_14_1 +0 x_1_14_2 -1 x_1_14_3 +1 x_1_7_0_sb -1 x_1_7_1_sb -1 x_1_7_2_sb -1 x_1_7_3_sb +0 p0_1_7 +0 p1_1_7 >= -4
+1 x_1_14_0 +0 x_1_14_1 +0 x_1_14_2 +1 x_1_14_3 +0 x_1_7_0_sb -1 x_1_7_1_sb -1 x_1_7_2_sb +1 x_1_7_3_sb +0 p0_1_7 -1 p1_1_7 >= -2
+0 x_1_14_0 +0 x_1_14_1 -1 x_1_14_2 +1 x_1_14_3 -1 x_1_7_0_sb +1 x_1_7_1_sb +0 x_1_7_2_sb -1 x_1_7_3_sb +0 p0_1_7 -1 p1_1_7 >= -3
+0 x_1_14_0 +1 x_1_14_1 +0 x_1_14_2 +1 x_1_14_3 -1 x_1_7_0_sb -1 x_1_7_1_sb +0 x_1_7_2_sb +1 x_1_7_3_sb +0 p0_1_7 -1 p1_1_7 >= -2
-1 x_1_14_0 +1 x_1_14_1 +0 x_1_14_2 -1 x_1_14_3 +0 x_1_7_0_sb +0 x_1_7_1_sb -1 x_1_7_2_sb +1 x_1_7_3_sb +0 p0_1_7 -1 p1_1_7 >= -3
-1 x_1_14_0 +0 x_1_14_1 +0 x_1_14_2 +0 x_1_14_3 -1 x_1_7_0_sb +1 x_1_7_1_sb +0 x_1_7_2_sb -1 x_1_7_3_sb +0 p0_1_7 -1 p1_1_7 >= -3
+0 x_1_14_0 +0 x_1_14_1 -1 x_1_14_2 +0 x_1_14_3 +1 x_1_7_0_sb +1 x_1_7_1_sb +0 x_1_7_2_sb +1 x_1_7_3_sb +0 p0_1_7 +0 p1_1_7 >= 0
+0 x_1_16_0 +0 x_1_16_1 +0 x_1_16_2 +0 x_1_16_3 +0 x_1_8_0_sb +0 x_1_8_1_sb +0 x_1_8_2_sb +0 x_1_8_3_sb -1 p0_1_8 -1 p1_1_8 >= -1
+0 x_1_16_0 +0 x_1_16_1 +0 x_1_16_2 +0 x_1_16_3 +0 x_1_8_0_sb +0 x_1_8_1_sb +0 x_1_8_2_sb -1 x_1_8_3_sb +1 p0_1_8 +1 p1_1_8 >= 0
+0 x_1_16_0 +0 x_1_16_1 +0 x_1_16_2 +0 x_1_16_3 +0 x_1_8_0_sb -1 x_1_8_1_sb +0 x_1_8_2_sb +0 x_1_8_3_sb +1 p0_1_8 +1 p1_1_8 >= 0
+0 x_1_16_0 +0 x_1_16_1 +0 x_1_16_2 +0 x_1_16_3 -1 x_1_8_0_sb +0 x_1_8_1_sb +0 x_1_8_2_sb +0 x_1_8_3_sb +1 p0_1_8 +1 p1_1_8 >= 0
+0 x_1_16_0 +0 x_1_16_1 +0 x_1_16_2 +0 x_1_16_3 +1 x_1_8_0_sb +1 x_1_8_1_sb +1 x_1_8_2_sb +1 x_1_8_3_sb +0 p0_1_8 -1 p1_1_8 >= 0
+0 x_1_16_0 +0 x_1_16_1 +0 x_1_16_2 -1 x_1_16_3 +1 x_1_8_0_sb +1 x_1_8_1_sb +0 x_1_8_2_sb +1 x_1_8_3_sb +0 p0_1_8 +1 p1_1_8 >= 0
-1 x_1_16_0 +0 x_1_16_1 -1 x_1_16_2 +0 x_1_16_3 +1 x_1_8_0_sb +0 x_1_8_1_sb +0 x_1_8_2_sb +1 x_1_8_3_sb +0 p0_1_8 -1 p1_1_8 >= -2
+1 x_1_16_0 +0 x_1_16_1 +1 x_1_16_2 +0 x_1_16_3 +1 x_1_8_0_sb +0 x_1_8_1_sb +1 x_1_8_2_sb +0 x_1_8_3_sb +0 p0_1_8 -1 p1_1_8 >= 0
+0 x_1_16_0 +0 x_1_16_1 +0 x_1_16_2 +1 x_1_16_3 +0 x_1_8_0_sb +1 x_1_8_1_sb -1 x_1_8_2_sb -1 x_1_8_3_sb +0 p0_1_8 -1 p1_1_8 >= -2
-1 x_1_16_0 +0 x_1_16_1 +0 x_1_16_2 -1 x_1_16_3 -1 x_1_8_0_sb +0 x_1_8_1_sb +0 x_1_8_2_sb +1 x_1_8_3_sb +0 p0_1_8 -1 p1_1_8 >= -3
+0 x_1_16_0 +0 x_1_16_1 +0 x_1_16_2 +1 x_1_16_3 -1 x_1_8_0_sb -1 x_1_8_1_sb -1 x_1_8_2_sb +0 x_1_8_3_sb +0 p0_1_8 -1 p1_1_8 >= -3
+1 x_1_16_0 +1 x_1_16_1 +0 x_1_16_2 +1 x_1_16_3 +0 x_1_8_0_sb +0 x_1_8_1_sb +0 x_1_8_2_sb +0 x_1_8_3_sb -1 p0_1_8 +0 p1_1_8 >= 0
+0 x_1_16_0 +0 x_1_16_1 +1 x_1_16_2 +1 x_1_16_3 +0 x_1_8_0_sb -1 x_1_8_1_sb +1 x_1_8_2_sb +0 x_1_8_3_sb +0 p0_1_8 -1 p1_1_8 >= -1
+0 x_1_16_0 +1 x_1_16_1 +0 x_1_16_2 -1 x_1_16_3 -1 x_1_8_0_sb +0 x_1_8_1_sb -1 x_1_8_2_sb +0 x_1_8_3_sb +0 p0_1_8 -1 p1_1_8 >= -3
+0 x_1_16_0 +1 x_1_16_1 +1 x_1_16_2 +0 x_1_16_3 +0 x_1_8_0_sb +0 x_1_8_1_sb +1 x_1_8_2_sb -1 x_1_8_3_sb +0 p0_1_8 -1 p1_1_8 >= -1
-1 x_1_16_0 +0 x_1_16_1 -1 x_1_16_2 +0 x_1_16_3 -1 x_1_8_0_sb +0 x_1_8_1_sb +1 x_1_8_2_sb +0 x_1_8_3_sb +0 p0_1_8 -1 p1_1_8 >= -3
+0 x_1_16_0 -1 x_1_16_1 -1 x_1_16_2 +0 x_1_16_3 +0 x_1_8_0_sb +1 x_1_8_1_sb +0 x_1_8_2_sb +1 x_1_8_3_sb +0 p0_1_8 -1 p1_1_8 >= -2
+0 x_1_16_0 -1 x_1_16_1 +0 x_1_16_2 +0 x_1_16_3 +1 x_1_8_0_sb +1 x_1_8_1_sb +0 x_1_8_2_sb +1 x_1_8_3_sb +0 p0_1_8 +1 p1_1_8 >= 0
-1 x_1_16_0 -1 x_1_16_1 +0 x_1_16_2 +1 x_1_16_3 +0 x_1_8_0_sb +1 x_1_8_1_sb +0 x_1_8_2_sb +1 x_1_8_3_sb +0 p0_1_8 -1 p1_1_8 >= -2
+0 x_1_16_0 -1 x_1_16_1 +0 x_1_16_2 +0 x_1_16_3 +1 x_1_8_0_sb +0 x_1_8_1_sb +1 x_1_8_2_sb +1 x_1_8_3_sb +0 p0_1_8 -1 p1_1_8 >= -1
-1 x_1_16_0 +0 x_1_16_1 -1 x_1_16_2 +0 x_1_16_3 +1 x_1_8_0_sb +1 x_1_8_1_sb +0 x_1_8_2_sb +0 x_1_8_3_sb +0 p0_1_8 -1 p1_1_8 >= -2
+0 x_1_16_0 +1 x_1_16_1 -1 x_1_16_2 -1 x_1_16_3 +0 x_1_8_0_sb +0 x_1_8_1_sb +0 x_1_8_2_sb +1 x_1_8_3_sb +0 p0_1_8 -1 p1_1_8 >= -2
-1 x_1_16_0 -1 x_1_16_1 +0 x_1_16_2 -1 x_1_16_3 +0 x_1_8_0_sb +1 x_1_8_1_sb +0 x_1_8_2_sb -1 x_1_8_3_sb +0 p0_1_8 -1 p1_1_8 >= -4
-1 x_1_16_0 +1 x_1_16_1 +0 x_1_16_2 +1 x_1_16_3 +0 x_1_8_0_sb +1 x_1_8_1_sb +0 x_1_8_2_sb +1 x_1_8_3_sb +0 p0_1_8 +1 p1_1_8 >= 0
+0 x_1_16_0 +0 x_1_16_1 +0 x_1_16_2 +0 x_1_16_3 +1 x_1_8_0_sb -1 x_1_8_1_sb +0 x_1_8_2_sb -1 x_1_8_3_sb +0 p0_1_8 +1 p1_1_8 >= -1
+1 x_1_16_0 +0 x_1_16_1 +1 x_1_16_2 +0 x_1_16_3 +1 x_1_8_0_sb -1 x_1_8_1_sb +0 x_1_8_2_sb +0 x_1_8_3_sb +0 p0_1_8 -1 p1_1_8 >= -1
+0 x_1_16_0 +1 x_1_16_1 +0 x_1_16_2 +1 x_1_16_3 +0 x_1_8_0_sb -1 x_1_8_1_sb -1 x_1_8_2_sb +0 x_1_8_3_sb +0 p0_1_8 -1 p1_1_8 >= -2
+1 x_1_16_0 -1 x_1_16_1 +0 x_1_16_2 -1 x_1_16_3 +0 x_1_8_0_sb +0 x_1_8_1_sb +1 x_1_8_2_sb +0 x_1_8_3_sb +0 p0_1_8 +0 p1_1_8 >= -1
+1 x_1_16_0 -1 x_1_16_1 -1 x_1_16_2 +0 x_1_16_3 +0 x_1_8_0_sb +0 x_1_8_1_sb +1 x_1_8_2_sb -1 x_1_8_3_sb +0 p0_1_8 -1 p1_1_8 >= -3
+1 x_1_16_0 -1 x_1_16_1 +0 x_1_16_2 -1 x_1_16_3 +0 x_1_8_0_sb +0 x_1_8_1_sb +0 x_1_8_2_sb +0 x_1_8_3_sb +0 p0_1_8 +1 p1_1_8 >= -1
+1 x_1_16_0 +0 x_1_16_1 +0 x_1_16_2 +0 x_1_16_3 -1 x_1_8_0_sb +1 x_1_8_1_sb +0 x_1_8_2_sb -1 x_1_8_3_sb +0 p0_1_8 +1 p1_1_8 >= -1
+1 x_1_16_0 +0 x_1_16_1 +0 x_1_16_2 +0 x_1_16_3 -1 x_1_8_0_sb -1 x_1_8_1_sb +0 x_1_8_2_sb +1 x_1_8_3_sb +0 p0_1_8 +1 p1_1_8 >= -1
-1 x_1_16_0 -1 x_1_16_1 +0 x_1_16_2 +1 x_1_16_3 +1 x_1_8_0_sb +0 x_1_8_1_sb +0 x_1_8_2_sb +0 x_1_8_3_sb +0 p0_1_8 +1 p1_1_8 >= -1
-1 x_1_16_0 +1 x_1_16_1 +0 x_1_16_2 -1 x_1_16_3 +1 x_1_8_0_sb +0 x_1_8_1_sb +0 x_1_8_2_sb +0 x_1_8_3_sb +0 p0_1_8 +1 p1_1_8 >= -1
+0 x_1_16_0 -1 x_1_16_1 +0 x_1_16_2 -1 x_1_16_3 +0 x_1_8_0_sb -1 x_1_8_1_sb +0 x_1_8_2_sb -1 x_1_8_3_sb +0 p0_1_8 +1 p1_1_8 >= -3
+1 x_1_16_0 +1 x_1_16_1 +0 x_1_16_2 +1 x_1_16_3 +0 x_1_8_0_sb +0 x_1_8_1_sb -1 x_1_8_2_sb +0 x_1_8_3_sb +0 p0_1_8 +0 p1_1_8 >= 0
-1 x_1_16_0 +0 x_1_16_1 +1 x_1_16_2 -1 x_1_16_3 +0 x_1_8_0_sb -1 x_1_8_1_sb -1 x_1_8_2_sb +0 x_1_8_3_sb +0 p0_1_8 -1 p1_1_8 >= -4
+1 x_1_16_0 +1 x_1_16_1 +0 x_1_16_2 -1 x_1_16_3 +1 x_1_8_0_sb +1 x_1_8_1_sb +0 x_1_8_2_sb -1 x_1_8_3_sb +0 p0_1_8 -1 p1_1_8 >= -2
+1 x_1_16_0 +0 x_1_16_1 +1 x_1_16_2 +0 x_1_16_3 +0 x_1_8_0_sb +1 x_1_8_1_sb +1 x_1_8_2_sb +1 x_1_8_3_sb +0 p0_1_8 -1 p1_1_8 >= 0
+1 x_1_16_0 +0 x_1_16_1 -1 x_1_16_2 -1 x_1_16_3 -1 x_1_8_0_sb -1 x_1_8_1_sb +0 x_1_8_2_sb -1 x_1_8_3_sb +0 p0_1_8 -1 p1_1_8 >= -5
+0 x_1_16_0 +0 x_1_16_1 +1 x_1_16_2 +1 x_1_16_3 -1 x_1_8_0_sb +0 x_1_8_1_sb -1 x_1_8_2_sb +0 x_1_8_3_sb +0 p0_1_8 -1 p1_1_8 >= -2
+0 x_1_16_0 +0 x_1_16_1 +1 x_1_16_2 +0 x_1_16_3 +1 x_1_8_0_sb -1 x_1_8_1_sb +0 x_1_8_2_sb -1 x_1_8_3_sb +0 p0_1_8 +0 p1_1_8 >= -1
+0 x_1_16_0 -1 x_1_16_1 +0 x_1_16_2 -1 x_1_16_3 +0 x_1_8_0_sb +1 x_1_8_1_sb +0 x_1_8_2_sb +1 x_1_8_3_sb +0 p0_1_8 +1 p1_1_8 >= -1
+0 x_1_16_0 +1 x_1_16_1 +0 x_1_16_2 +1 x_1_16_3 +0 x_1_8_0_sb -1 x_1_8_1_sb +0 x_1_8_2_sb -1 x_1_8_3_sb +0 p0_1_8 +1 p1_1_8 >= -1
+1 x_1_16_0 -1 x_1_16_1 +1 x_1_16_2 -1 x_1_16_3 +1 x_1_8_0_sb +0 x_1_8_1_sb +0 x_1_8_2_sb +0 x_1_8_3_sb +0 p0_1_8 +0 p1_1_8 >= -1
+1 x_1_16_0 +0 x_1_16_1 +0 x_1_16_2 +0 x_1_16_3 +1 x_1_8_0_sb -1 x_1_8_1_sb +1 x_1_8_2_sb -1 x_1_8_3_sb +0 p0_1_8 +0 p1_1_8 >= -1
+0 x_1_16_0 -1 x_1_16_1 +0 x_1_16_2 -1 x_1_16_3 +1 x_1_8_0_sb -1 x_1_8_1_sb -1 x_1_8_2_sb -1 x_1_8_3_sb +0 p0_1_8 +0 p1_1_8 >= -4
+1 x_1_16_0 +0 x_1_16_1 +0 x_1_16_2 +1 x_1_16_3 +0 x_1_8_0_sb -1 x_1_8_1_sb -1 x_1_8_2_sb +1 x_1_8_3_sb +0 p0_1_8 -1 p1_1_8 >= -2
+0 x_1_16_0 +0 x_1_16_1 -1 x_1_16_2 +1 x_1_16_3 -1 x_1_8_0_sb +1 x_1_8_1_sb +0 x_1_8_2_sb -1 x_1_8_3_sb +0 p0_1_8 -1 p1_1_8 >= -3
+0 x_1_16_0 +1 x_1_16_1 +0 x_1_16_2 +1 x_1_16_3 -1 x_1_8_0_sb -1 x_1_8_1_sb +0 x_1_8_2_sb +1 x_1_8_3_sb +0 p0_1_8 -1 p1_1_8 >= -2
-1 x_1_16_0 +1 x_1_16_1 +0 x_1_16_2 -1 x_1_16_3 +0 x_1_8_0_sb +0 x_1_8_1_sb -1 x_1_8_2_sb +1 x_1_8_3_sb +0 p0_1_8 -1 p1_1_8 >= -3
-1 x_1_16_0 +0 x_1_16_1 +0 x_1_16_2 +0 x_1_16_3 -1 x_1_8_0_sb +1 x_1_8_1_sb +0 x_1_8_2_sb -1 x_1_8_3_sb +0 p0_1_8 -1 p1_1_8 >= -3
+0 x_1_16_0 +0 x_1_16_1 -1 x_1_16_2 +0 x_1_16_3 +1 x_1_8_0_sb +1 x_1_8_1_sb +0 x_1_8_2_sb +1 x_1_8_3_sb +0 p0_1_8 +0 p1_1_8 >= 0
+0 x_1_18_0 +0 x_1_18_1 +0 x_1_18_2 +0 x_1_18_3 +0 x_1_9_0_sb +0 x_1_9_1_sb +0 x_1_9_2_sb +0 x_1_9_3_sb -1 p0_1_9 -1 p1_1_9 >= -1
+0 x_1_18_0 +0 x_1_18_1 +0 x_1_18_2 +0 x_1_18_3 +0 x_1_9_0_sb +0 x_1_9_1_sb +0 x_1_9_2_sb -1 x_1_9_3_sb +1 p0_1_9 +1 p1_1_9 >= 0
+0 x_1_18_0 +0 x_1_18_1 +0 x_1_18_2 +0 x_1_18_3 +0 x_1_9_0_sb -1 x_1_9_1_sb +0 x_1_9_2_sb +0 x_1_9_3_sb +1 p0_1_9 +1 p1_1_9 >= 0
+0 x_1_18_0 +0 x_1_18_1 +0 x_1_18_2 +0 x_1_18_3 -1 x_1_9_0_sb +0 x_1_9_1_sb +0 x_1_9_2_sb +0 x_1_9_3_sb +1 p0_1_9 +1 p1_1_9 >= 0
+0 x_1_18_0 +0 x_1_18_1 +0 x_1_18_2 +0 x_1_18_3 +1 x_1_9_0_sb +1 x_1_9_1_sb +1 x_1_9_2_sb +1 x_1_9_3_sb +0 p0_1_9 -1 p1_1_9 >= 0
+0 x_1_18_0 +0 x_1_18_1 +0 x_1_18_2 -1 x_1_18_3 +1 x_1_9_0_sb +1 x_1_9_1_sb +0 x_1_9_2_sb +1 x_1_9_3_sb +0 p0_1_9 +1 p1_1_9 >= 0
-1 x_1_18_0 +0 x_1_18_1 -1 x_1_18_2 +0 x_1_18_3 +1 x_1_9_0_sb +0 x_1_9_1_sb +0 x_1_9_2_sb +1 x_1_9_3_sb +0 p0_1_9 -1 p1_1_9 >= -2
+1 x_1_18_0 +0 x_1_18_1 +1 x_1_18_2 +0 x_1_18_3 +1 x_1_9_0_sb +0 x_1_9_1_sb +1 x_1_9_2_sb +0 x_1_9_3_sb +0 p0_1_9 -1 p1_1_9 >= 0
+0 x_1_18_0 +0 x_1_18_1 +0 x_1_18_2 +1 x_1_18_3 +0 x_1_9_0_sb +1 x_1_9_1_sb -1 x_1_9_2_sb -1 x_1_9_3_sb +0 p0_1_9 -1 p1_1_9 >= -2
-1 x_1_18_0 +0 x_1_18_1 +0 x_1_18_2 -1 x_1_18_3 -1 x_1_9_0_sb +0 x_1_9_1_sb +0 x_1_9_2_sb +1 x_1_9_3_sb +0 p0_1_9 -1 p1_1_9 >= -3
+0 x_1_18_0 +0 x_1_18_1 +0 x_1_18_2 +1 x_1_18_3 -1 x_1_9_0_sb -1 x_1_9_1_sb -1 x_1_9_2_sb +0 x_1_9_3_sb +0 p0_1_9 -1 p1_1_9 >= -3
+1 x_1_18_0 +1 x_1_18_1 +0 x_1_18_2 +1 x_1_18_3 +0 x_1_9_0_sb +0 x_1_9_1_sb +0 x_1_9_2_sb +0 x_1_9_3_sb -1 p0_1_9 +0 p1_1_9 >= 0
+0 x_1_18_0 +0 x_1_18_1 +1 x_1_18_2 +1 x_1_18_3 +0 x_1_9_0_sb -1 x_1_9_1_sb +1 x_1_9_2_sb +0 x_1_9_3_sb +0 p0_1_9 -1 p1_1_9 >= -1
+0 x_1_18_0 +1 x_1_18_1 +0 x_1_18_2 -1 x_1_18_3 -1 x_1_9_0_sb +0 x_1_9_1_sb -1 x_1_9_2_sb +0 x_1_9_3_sb +0 p0_1_9 -1 p1_1_9 >= -3
+0 x_1_18_0 +1 x_1_18_1 +1 x_1_18_2 +0 x_1_18_3 +0 x_1_9_0_sb +0 x_1_9_1_sb +1 x_1_9_2_sb -1 x_1_9_3_sb +0 p0_1_9 -1 p1_1_9 >= -1
-1 x_1_18_0 +0 x_1_18_1 -1 x_1_18_2 +0 x_1_18_3 -1 x_1_9_0_sb +0 x_1_9_1_sb +1 x_1_9_2_sb +0 x_1_9_3_sb +0 p0_1_9 -1 p1_1_9 >= -3
+0 x_1_18_0 -1 x_1_18_1 -1 x_1_18_2 +0 x_1_18_3 +0 x_1_9_0_sb +1 x_1_9_1_sb +0 x_1_9_2_sb +1 x_1_9_3_sb +0 p0_1_9 -1 p1_1_9 >= -2
+0 x_1_18_0 -1 x_1_18_1 +0 x_1_18_2 +0 x_1_18_3 +1 x_1_9_0_sb +1 x_1_9_1_sb +0 x_1_9_2_sb +1 x_1_9_3_sb +0 p0_1_9 +1 p1_1_9 >= 0
-1 x_1_18_0 -1 x_1_18_1 +0 x_1_18_2 +1 x_1_18_3 +0 x_1_9_0_sb +1 x_1_9_1_sb +0 x_1_9_2_sb +1 x_1_9_3_sb +0 p0_1_9 -1 p1_1_9 >= -2
+0 x_1_18_0 -1 x_1_18_1 +0 x_1_18_2 +0 x_1_18_3 +1 x_1_9_0_sb +0 x_1_9_1_sb +1 x_1_9_2_sb +1 x_1_9_3_sb +0 p0_1_9 -1 p1_1_9 >= -1
-1 x_1_18_0 +0 x_1_18_1 -1 x_1_18_2 +0 x_1_18_3 +1 x_1_9_0_sb +1 x_1_9_1_sb +0 x_1_9_2_sb +0 x_1_9_3_sb +0 p0_1_9 -1 p1_1_9 >= -2
+0 x_1_18_0 +1 x_1_18_1 -1 x_1_18_2 -1 x_1_18_3 +0 x_1_9_0_sb +0 x_1_9_1_sb +0 x_1_9_2_sb +1 x_1_9_3_sb +0 p0_1_9 -1 p1_1_9 >= -2
-1 x_1_18_0 -1 x_1_18_1 +0 x_1_18_2 -1 x_1_18_3 +0 x_1_9_0_sb +1 x_1_9_1_sb +0 x_1_9_2_sb -1 x_1_9_3_sb +0 p0_1_9 -1 p1_1_9 >= -4
-1 x_1_18_0 +1 x_1_18_1 +0 x_1_18_2 +1 x_1_18_3 +0 x_1_9_0_sb +1 x_1_9_1_sb +0 x_1_9_2_sb +1 x_1_9_3_sb +0 p0_1_9 +1 p1_1_9 >= 0
+0 x_1_18_0 +0 x_1_18_1 +0 x_1_18_2 +0 x_1_18_3 +1 x_1_9_0_sb -1 x_1_9_1_sb +0 x_1_9_2_sb -1 x_1_9_3_sb +0 p0_1_9 +1 p1_1_9 >= -1
+1 x_1_18_0 +0 x_1_18_1 +1 x_1_18_2 +0 x_1_18_3 +1 x_1_9_0_sb -1 x_1_9_1_sb +0 x_1_9_2_sb +0 x_1_9_3_sb +0 p0_1_9 -1 p1_1_9 >= -1
+0 x_1_18_0 +1 x_1_18_1 +0 x_1_18_2 +1 x_1_18_3 +0 x_1_9_0_sb -1 x_1_9_1_sb -1 x_1_9_2_sb +0 x_1_9_3_sb +0 p0_1_9 -1 p1_1_9 >= -2
+1 x_1_18_0 -1 x_1_18_1 +0 x_1_18_2 -1 x_1_18_3 +0 x_1_9_0_sb +0 x_1_9_1_sb +1 x_1_9_2_sb +0 x_1_9_3_sb +0 p0_1_9 +0 p1_1_9 >= -1
+1 x_1_18_0 -1 x_1_18_1 -1 x_1_18_2 +0 x_1_18_3 +0 x_1_9_0_sb +0 x_1_9_1_sb +1 x_1_9_2_sb -1 x_1_9_3_sb +0 p0_1_9 -1 p1_1_9 >= -3
+1 x_1_18_0 -1 x_1_18_1 +0 x_1_18_2 -1 x_1_18_3 +0 x_1_9_0_sb +0 x_1_9_1_sb +0 x_1_9_2_sb +0 x_1_9_3_sb +0 p0_1_9 +1 p1_1_9 >= -1
+1 x_1_18_0 +0 x_1_18_1 +0 x_1_18_2 +0 x_1_18_3 -1 x_1_9_0_sb +1 x_1_9_1_sb +0 x_1_9_2_sb -1 x_1_9_3_sb +0 p0_1_9 +1 p1_1_9 >= -1
+1 x_1_18_0 +0 x_1_18_1 +0 x_1_18_2 +0 x_1_18_3 -1 x_1_9_0_sb -1 x_1_9_1_sb +0 x_1_9_2_sb +1 x_1_9_3_sb +0 p0_1_9 +1 p1_1_9 >= -1
-1 x_1_18_0 -1 x_1_18_1 +0 x_1_18_2 +1 x_1_18_3 +1 x_1_9_0_sb +0 x_1_9_1_sb +0 x_1_9_2_sb +0 x_1_9_3_sb +0 p0_1_9 +1 p1_1_9 >= -1
-1 x_1_18_0 +1 x_1_18_1 +0 x_1_18_2 -1 x_1_18_3 +1 x_1_9_0_sb +0 x_1_9_1_sb +0 x_1_9_2_sb +0 x_1_9_3_sb +0 p0_1_9 +1 p1_1_9 >= -1
+0 x_1_18_0 -1 x_1_18_1 +0 x_1_18_2 -1 x_1_18_3 +0 x_1_9_0_sb -1 x_1_9_1_sb +0 x_1_9_2_sb -1 x_1_9_3_sb +0 p0_1_9 +1 p1_1_9 >= -3
+1 x_1_18_0 +1 x_1_18_1 +0 x_1_18_2 +1 x_1_18_3 +0 x_1_9_0_sb +0 x_1_9_1_sb -1 x_1_9_2_sb +0 x_1_9_3_sb +0 p0_1_9 +0 p1_1_9 >= 0
-1 x_1_18_0 +0 x_1_18_1 +1 x_1_18_2 -1 x_1_18_3 +0 x_1_9_0_sb -1 x_1_9_1_sb -1 x_1_9_2_sb +0 x_1_9_3_sb +0 p0_1_9 -1 p1_1_9 >= -4
+1 x_1_18_0 +1 x_1_18_1 +0 x_1_18_2 -1 x_1_18_3 +1 x_1_9_0_sb +1 x_1_9_1_sb +0 x_1_9_2_sb -1 x_1_9_3_sb +0 p0_1_9 -1 p1_1_9 >= -2
+1 x_1_18_0 +0 x_1_18_1 +1 x_1_18_2 +0 x_1_18_3 +0 x_1_9_0_sb +1 x_1_9_1_sb +1 x_1_9_2_sb +1 x_1_9_3_sb +0 p0_1_9 -1 p1_1_9 >= 0
+1 x_1_18_0 +0 x_1_18_1 -1 x_1_18_2 -1 x_1_18_3 -1 x_1_9_0_sb -1 x_1_9_1_sb +0 x_1_9_2_sb -1 x_1_9_3_sb +0 p0_1_9 -1 p1_1_9 >= -5
+0 x_1_18_0 +0 x_1_18_1 +1 x_1_18_2 +1 x_1_18_3 -1 x_1_9_0_sb +0 x_1_9_1_sb -1 x_1_9_2_sb +0 x_1_9_3_sb +0 p0_1_9 -1 p1_1_9 >= -2
+0 x_1_18_0 +0 x_1_18_1 +1 x_1_18_2 +0 x_1_18_3 +1 x_1_9_0_sb -1 x_1_9_1_sb +0 x_1_9_2_sb -1 x_1_9_3_sb +0 p0_1_9 +0 p1_1_9 >= -1
+0 x_1_18_0 -1 x_1_18_1 +0 x_1_18_2 -1 x_1_18_3 +0 x_1_9_0_sb +1 x_1_9_1_sb +0 x_1_9_2_sb +1 x_1_9_3_sb +0 p0_1_9 +1 p1_1_9 >= -1
+0 x_1_18_0 +1 x_1_18_1 +0 x_1_18_2 +1 x_1_18_3 +0 x_1_9_0_sb -1 x_1_9_1_sb +0 x_1_9_2_sb -1 x_1_9_3_sb +0 p0_1_9 +1 p1_1_9 >= -1
+1 x_1_18_0 -1 x_1_18_1 +1 x_1_18_2 -1 x_1_18_3 +1 x_1_9_0_sb +0 x_1_9_1_sb +0 x_1_9_2_sb +0 x_1_9_3_sb +0 p0_1_9 +0 p1_1_9 >= -1
+1 x_1_18_0 +0 x_1_18_1 +0 x_1_18_2 +0 x_1_18_3 +1 x_1_9_0_sb -1 x_1_9_1_sb +1 x_1_9_2_sb -1 x_1_9_3_sb +0 p0_1_9 +0 p1_1_9 >= -1
+0 x_1_18_0 -1 x_1_18_1 +0 x_1_18_2 -1 x_1_18_3 +1 x_1_9_0_sb -1 x_1_9_1_sb -1 x_1_9_2_sb -1 x_1_9_3_sb +0 p0_1_9 +0 p1_1_9 >= -4
+1 x_1_18_0 +0 x_1_18_1 +0 x_1_18_2 +1 x_1_18_3 +0 x_1_9_0_sb -1 x_1_9_1_sb -1 x_1_9_2_sb +1 x_1_9_3_sb +0 p0_1_9 -1 p1_1_9 >= -2
+0 x_1_18_0 +0 x_1_18_1 -1 x_1_18_2 +1 x_1_18_3 -1 x_1_9_0_sb +1 x_1_9_1_sb +0 x_1_9_2_sb -1 x_1_9_3_sb +0 p0_1_9 -1 p1_1_9 >= -3
+0 x_1_18_0 +1 x_1_18_1 +0 x_1_18_2 +1 x_1_18_3 -1 x_1_9_0_sb -1 x_1_9_1_sb +0 x_1_9_2_sb +1 x_1_9_3_sb +0 p0_1_9 -1 p1_1_9 >= -2
-1 x_1_18_0 +1 x_1_18_1 +0 x_1_18_2 -1 x_1_18_3 +0 x_1_9_0_sb +0 x_1_9_1_sb -1 x_1_9_2_sb +1 x_1_9_3_sb +0 p0_1_9 -1 p1_1_9 >= -3
-1 x_1_18_0 +0 x_1_18_1 +0 x_1_18_2 +0 x_1_18_3 -1 x_1_9_0_sb +1 x_1_9_1_sb +0 x_1_9_2_sb -1 x_1_9_3_sb +0 p0_1_9 -1 p1_1_9 >= -3
+0 x_1_18_0 +0 x_1_18_1 -1 x_1_18_2 +0 x_1_18_3 +1 x_1_9_0_sb +1 x_1_9_1_sb +0 x_1_9_2_sb +1 x_1_9_3_sb +0 p0_1_9 +0 p1_1_9 >= 0
+0 x_1_20_0 +0 x_1_20_1 +0 x_1_20_2 +0 x_1_20_3 +0 x_1_10_0_sb +0 x_1_10_1_sb +0 x_1_10_2_sb +0 x_1_10_3_sb -1 p0_1_10 -1 p1_1_10 >= -1
+0 x_1_20_0 +0 x_1_20_1 +0 x_1_20_2 +0 x_1_20_3 +0 x_1_10_0_sb +0 x_1_10_1_sb +0 x_1_10_2_sb -1 x_1_10_3_sb +1 p0_1_10 +1 p1_1_10 >= 0
+0 x_1_20_0 +0 x_1_20_1 +0 x_1_20_2 +0 x_1_20_3 +0 x_1_10_0_sb -1 x_1_10_1_sb +0 x_1_10_2_sb +0 x_1_10_3_sb +1 p0_1_10 +1 p1_1_10 >= 0
+0 x_1_20_0 +0 x_1_20_1 +0 x_1_20_2 +0 x_1_20_3 -1 x_1_10_0_sb +0 x_1_10_1_sb +0 x_1_10_2_sb +0 x_1_10_3_sb +1 p0_1_10 +1 p1_1_10 >= 0
+0 x_1_20_0 +0 x_1_20_1 +0 x_1_20_2 +0 x_1_20_3 +1 x_1_10_0_sb +1 x_1_10_1_sb +1 x_1_10_2_sb +1 x_1_10_3_sb +0 p0_1_10 -1 p1_1_10 >= 0
+0 x_1_20_0 +0 x_1_20_1 +0 x_1_20_2 -1 x_1_20_3 +1 x_1_10_0_sb +1 x_1_10_1_sb +0 x_1_10_2_sb +1 x_1_10_3_sb +0 p0_1_10 +1 p1_1_10 >= 0
-1 x_1_20_0 +0 x_1_20_1 -1 x_1_20_2 +0 x_1_20_3 +1 x_1_10_0_sb +0 x_1_10_1_sb +0 x_1_10_2_sb +1 x_1_10_3_sb +0 p0_1_10 -1 p1_1_10 >= -2
+1 x_1_20_0 +0 x_1_20_1 +1 x_1_20_2 +0 x_1_20_3 +1 x_1_10_0_sb +0 x_1_10_1_sb +1 x_1_10_2_sb +0 x_1_10_3_sb +0 p0_1_10 -1 p1_1_10 >= 0
+0 x_1_20_0 +0 x_1_20_1 +0 x_1_20_2 +1 x_1_20_3 +0 x_1_10_0_sb +1 x_1_10_1_sb -1 x_1_10_2_sb -1 x_1_10_3_sb +0 p0_1_10 -1 p1_1_10 >= -2
-1 x_1_20_0 +0 x_1_20_1 +0 x_1_20_2 -1 x_1_20_3 -1 x_1_10_0_sb +0 x_1_10_1_sb +0 x_1_10_2_sb +1 x_1_10_3_sb +0 p0_1_10 -1 p1_1_10 >= -3
+0 x_1_20_0 +0 x_1_20_1 +0 x_1_20_2 +1 x_1_20_3 -1 x_1_10_0_sb -1 x_1_10_1_sb -1 x_1_10_2_sb +0 x_1_10_3_sb +0 p0_1_10 -1 p1_1_10 >= -3
+1 x_1_20_0 +1 x_1_20_1 +0 x_1_20_2 +1 x_1_20_3 +0 x_1_10_0_sb +0 x_1_10_1_sb +0 x_1_10_2_sb +0 x_1_10_3_sb -1 p0_1_10 +0 p1_1_10 >= 0
+0 x_1_20_0 +0 x_1_20_1 +1 x_1_20_2 +1 x_1_20_3 +0 x_1_10_0_sb -1 x_1_10_1_sb +1 x_1_10_2_sb +0 x_1_10_3_sb +0 p0_1_10 -1 p1_1_10 >= -1
+0 x_1_20_0 +1 x_1_20_1 +0 x_1_20_2 -1 x_1_20_3 -1 x_1_10_0_sb +0 x_1_10_1_sb -1 x_1_10_2_sb +0 x_1_10_3_sb +0 p0_1_10 -1 p1_1_10 >= -3
+0 x_1_20_0 +1 x_1_20_1 +1 x_1_20_2 +0 x_1_20_3 +0 x_1_10_0_sb +0 x_1_10_1_sb +1 x_1_10_2_sb -1 x_1_10_3_sb +0 p0_1_10 -1 p1_1_10 >= -1
-1 x_1_20_0 +0 x_1_20_1 -1 x_1_20_2 +0 x_1_20_3 -1 x_1_10_0_sb +0 x_1_10_1_sb +1 x_1_10_2_sb +0 x_1_10_3_sb +0 p0_1_10 -1 p1_1_10 >= -3
+0 x_1_20_0 -1 x_1_20_1 -1 x_1_20_2 +0 x_1_20_3 +0 x_1_10_0_sb +1 x_1_10_1_sb +0 x_1_10_2_sb +1 x_1_10_3_sb +0 p0_1_10 -1 p1_1_10 >= -2
+0 x_1_20_0 -1 x_1_20_1 +0 x_1_20_2 +0 x_1_20_3 +1 x_1_10_0_sb +1 x_1_10_1_sb +0 x_1_10_2_sb +1 x_1_10_3_sb +0 p0_1_10 +1 p1_1_10 >= 0
-1 x_1_20_0 -1 x_1_20_1 +0 x_1_20_2 +1 x_1_20_3 +0 x_1_10_0_sb +1 x_1_10_1_sb +0 x_1_10_2_sb +1 x_1_10_3_sb +0 p0_1_10 -1 p1_1_10 >= -2
+0 x_1_20_0 -1 x_1_20_1 +0 x_1_20_2 +0 x_1_20_3 +1 x_1_10_0_sb +0 x_1_10_1_sb +1 x_1_10_2_sb +1 x_1_10_3_sb +0 p0_1_10 -1 p1_1_10 >= -1
-1 x_1_20_0 +0 x_1_20_1 -1 x_1_20_2 +0 x_1_20_3 +1 x_1_10_0_sb +1 x_1_10_1_sb +0 x_1_10_2_sb +0 x_1_10_3_sb +0 p0_1_10 -1 p1_1_10 >= -2
+0 x_1_20_0 +1 x_1_20_1 -1 x_1_20_2 -1 x_1_20_3 +0 x_1_10_0_sb +0 x_1_10_1_sb +0 x_1_10_2_sb +1 x_1_10_3_sb +0 p0_1_10 -1 p1_1_10 >= -2
-1 x_1_20_0 -1 x_1_20_1 +0 x_1_20_2 -1 x_1_20_3 +0 x_1_10_0_sb +1 x_1_10_1_sb +0 x_1_10_2_sb -1 x_1_10_3_sb +0 p0_1_10 -1 p1_1_10 >= -4
-1 x_1_20_0 +1 x_1_20_1 +0 x_1_20_2 +1 x_1_20_3 +0 x_1_10_0_sb +1 x_1_10_1_sb +0 x_1_10_2_sb +1 x_1_10_3_sb +0 p0_1_10 +1 p1_1_10 >= 0
+0 x_1_20_0 +0 x_1_20_1 +0 x_1_20_2 +0 x_1_20_3 +1 x_1_10_0_sb -1 x_1_10_1_sb +0 x_1_10_2_sb -1 x_1_10_3_sb +0 p0_1_10 +1 p1_1_10 >= -1
+1 x_1_20_0 +0 x_1_20_1 +1 x_1_20_2 +0 x_1_20_3 +1 x_1_10_0_sb -1 x_1_10_1_sb +0 x_1_10_2_sb +0 x_1_10_3_sb +0 p0_1_10 -1 p1_1_10 >= -1
+0 x_1_20_0 +1 x_1_20_1 +0 x_1_20_2 +1 x_1_20_3 +0 x_1_10_0_sb -1 x_1_10_1_sb -1 x_1_10_2_sb +0 x_1_10_3_sb +0 p0_1_10 -1 p1_1_10 >= -2
+1 x_1_20_0 -1 x_1_20_1 +0 x_1_20_2 -1 x_1_20_3 +0 x_1_10_0_sb +0 x_1_10_1_sb +1 x_1_10_2_sb +0 x_1_10_3_sb +0 p0_1_10 +0 p1_1_10 >= -1
+1 x_1_20_0 -1 x_1_20_1 -1 x_1_20_2 +0 x_1_20_3 +0 x_1_10_0_sb +0 x_1_10_1_sb +1 x_1_10_2_sb -1 x_1_10_3_sb +0 p0_1_10 -1 p1_1_10 >= -3
+1 x_1_20_0 -1 x_1_20_1 +0 x_1_20_2 -1 x_1_20_3 +0 x_1_10_0_sb +0 x_1_10_1_sb +0 x_1_10_2_sb +0 x_1_10_3_sb +0 p0_1_10 +1 p1_1_10 >= -1
+1 x_1_20_0 +0 x_1_20_1 +0 x_1_20_2 +0 x_1_20_3 -1 x_1_10_0_sb +1 x_1_10_1_sb +0 x_1_10_2_sb -1 x_1_10_3_sb +0 p0_1_10 +1 p1_1_10 >= -1
+1 x_1_20_0 +0 x_1_20_1 +0 x_1_20_2 +0 x_1_20_3 -1 x_1_10_0_sb -1 x_1_10_1_sb +0 x_1_10_2_sb +1 x_1_10_3_sb +0 p0_1_10 +1 p1_1_10 >= -1
-1 x_1_20_0 -1 x_1_20_1 +0 x_1_20_2 +1 x_1_20_3 +1 x_1_10_0_sb +0 x_1_10_1_sb +0 x_1_10_2_sb +0 x_1_10_3_sb +0 p0_1_10 +1 p1_1_10 >= -1
-1 x_1_20_0 +1 x_1_20_1 +0 x_1_20_2 -1 x_1_20_3 +1 x_1_10_0_sb +0 x_1_10_1_sb +0 x_1_10_2_sb +0 x_1_10_3_sb +0 p0_1_10 +1 p1_1_10 >= -1
+0 x_1_20_0 -1 x_1_20_1 +0 x_1_20_2 -1 x_1_20_3 +0 x_1_10_0_sb -1 x_1_10_1_sb +0 x_1_10_2_sb -1 x_1_10_3_sb +0 p0_1_10 +1 p1_1_10 >= -3
+1 x_1_20_0 +1 x_1_20_1 +0 x_1_20_2 +1 x_1_20_3 +0 x_1_10_0_sb +0 x_1_10_1_sb -1 x_1_10_2_sb +0 x_1_10_3_sb +0 p0_1_10 +0 p1_1_10 >= 0
-1 x_1_20_0 +0 x_1_20_1 +1 x_1_20_2 -1 x_1_20_3 +0 x_1_10_0_sb -1 x_1_10_1_sb -1 x_1_10_2_sb +0 x_1_10_3_sb +0 p0_1_10 -1 p1_1_10 >= -4
+1 x_1_20_0 +1 x_1_20_1 +0 x_1_20_2 -1 x_1_20_3 +1 x_1_10_0_sb +1 x_1_10_1_sb +0 x_1_10_2_sb -1 x_1_10_3_sb +0 p0_1_10 -1 p1_1_10 >= -2
+1 x_1_20_0 +0 x_1_20_1 +1 x_1_20_2 +0 x_1_20_3 +0 x_1_10_0_sb +1 x_1_10_1_sb +1 x_1_10_2_sb +1 x_1_10_3_sb +0 p0_1_10 -1 p1_1_10 >= 0
+1 x_1_20_0 +0 x_1_20_1 -1 x_1_20_2 -1 x_1_20_3 -1 x_1_10_0_sb -1 x_1_10_1_sb +0 x_1_10_2_sb -1 x_1_10_3_sb +0 p0_1_10 -1 p1_1_10 >= -5
+0 x_1_20_0 +0 x_1_20_1 +1 x_1_20_2 +1 x_1_20_3 -1 x_1_10_0_sb +0 x_1_10_1_sb -1 x_1_10_2_sb +0 x_1_10_3_sb +0 p0_1_10 -1 p1_1_10 >= -2
+0 x_1_20_0 +0 x_1_20_1 +1 x_1_20_2 +0 x_1_20_3 +1 x_1_10_0_sb -1 x_1_10_1_sb +0 x_1_10_2_sb -1 x_1_10_3_sb +0 p0_1_10 +0 p1_1_10 >= -1
+0 x_1_20_0 -1 x_1_20_1 +0 x_1_20_2 -1 x_1_20_3 +0 x_1_10_0_sb +1 x_1_10_1_sb +0 x_1_10_2_sb +1 x_1_10_3_sb +0 p0_1_10 +1 p1_1_10 >= -1
+0 x_1_20_0 +1 x_1_20_1 +0 x_1_20_2 +1 x_1_20_3 +0 x_1_10_0_sb -1 x_1_10_1_sb +0 x_1_10_2_sb -1 x_1_10_3_sb +0 p0_1_10 +1 p1_1_10 >= -1
+1 x_1_20_0 -1 x_1_20_1 +1 x_1_20_2 -1 x_1_20_3 +1 x_1_10_0_sb +0 x_1_10_1_sb +0 x_1_10_2_sb +0 x_1_10_3_sb +0 p0_1_10 +0 p1_1_10 >= -1
+1 x_1_20_0 +0 x_1_20_1 +0 x_1_20_2 +0 x_1_20_3 +1 x_1_10_0_sb -1 x_1_10_1_sb +1 x_1_10_2_sb -1 x_1_10_3_sb +0 p0_1_10 +0 p1_1_10 >= -1
+0 x_1_20_0 -1 x_1_20_1 +0 x_1_20_2 -1 x_1_20_3 +1 x_1_10_0_sb -1 x_1_10_1_sb -1 x_1_10_2_sb -1 x_1_10_3_sb +0 p0_1_10 +0 p1_1_10 >= -4
+1 x_1_20_0 +0 x_1_20_1 +0 x_1_20_2 +1 x_1_20_3 +0 x_1_10_0_sb -1 x_1_10_1_sb -1 x_1_10_2_sb +1 x_1_10_3_sb +0 p0_1_10 -1 p1_1_10 >= -2
+0 x_1_20_0 +0 x_1_20_1 -1 x_1_20_2 +1 x_1_20_3 -1 x_1_10_0_sb +1 x_1_10_1_sb +0 x_1_10_2_sb -1 x_1_10_3_sb +0 p0_1_10 -1 p1_1_10 >= -3
+0 x_1_20_0 +1 x_1_20_1 +0 x_1_20_2 +1 x_1_20_3 -1 x_1_10_0_sb -1 x_1_10_1_sb +0 x_1_10_2_sb +1 x_1_10_3_sb +0 p0_1_10 -1 p1_1_10 >= -2
-1 x_1_20_0 +1 x_1_20_1 +0 x_1_20_2 -1 x_1_20_3 +0 x_1_10_0_sb +0 x_1_10_1_sb -1 x_1_10_2_sb +1 x_1_10_3_sb +0 p0_1_10 -1 p1_1_10 >= -3
-1 x_1_20_0 +0 x_1_20_1 +0 x_1_20_2 +0 x_1_20_3 -1 x_1_10_0_sb +1 x_1_10_1_sb +0 x_1_10_2_sb -1 x_1_10_3_sb +0 p0_1_10 -1 p1_1_10 >= -3
+0 x_1_20_0 +0 x_1_20_1 -1 x_1_20_2 +0 x_1_20_3 +1 x_1_10_0_sb +1 x_1_10_1_sb +0 x_1_10_2_sb +1 x_1_10_3_sb +0 p0_1_10 +0 p1_1_10 >= 0
+0 x_1_22_0 +0 x_1_22_1 +0 x_1_22_2 +0 x_1_22_3 +0 x_1_11_0_sb +0 x_1_11_1_sb +0 x_1_11_2_sb +0 x_1_11_3_sb -1 p0_1_11 -1 p1_1_11 >= -1
+0 x_1_22_0 +0 x_1_22_1 +0 x_1_22_2 +0 x_1_22_3 +0 x_1_11_0_sb +0 x_1_11_1_sb +0 x_1_11_2_sb -1 x_1_11_3_sb +1 p0_1_11 +1 p1_1_11 >= 0
+0 x_1_22_0 +0 x_1_22_1 +0 x_1_22_2 +0 x_1_22_3 +0 x_1_11_0_sb -1 x_1_11_1_sb +0 x_1_11_2_sb +0 x_1_11_3_sb +1 p0_1_11 +1 p1_1_11 >= 0
+0 x_1_22_0 +0 x_1_22_1 +0 x_1_22_2 +0 x_1_22_3 -1 x_1_11_0_sb +0 x_1_11_1_sb +0 x_1_11_2_sb +0 x_1_11_3_sb +1 p0_1_11 +1 p1_1_11 >= 0
+0 x_1_22_0 +0 x_1_22_1 +0 x_1_22_2 +0 x_1_22_3 +1 x_1_11_0_sb +1 x_1_11_1_sb +1 x_1_11_2_sb +1 x_1_11_3_sb +0 p0_1_11 -1 p1_1_11 >= 0
+0 x_1_22_0 +0 x_1_22_1 +0 x_1_22_2 -1 x_1_22_3 +1 x_1_11_0_sb +1 x_1_11_1_sb +0 x_1_11_2_sb +1 x_1_11_3_sb +0 p0_1_11 +1 p1_1_11 >= 0
-1 x_1_22_0 +0 x_1_22_1 -1 x_1_22_2 +0 x_1_22_3 +1 x_1_11_0_sb +0 x_1_11_1_sb +0 x_1_11_2_sb +1 x_1_11_3_sb +0 p0_1_11 -1 p1_1_11 >= -2
+1 x_1_22_0 +0 x_1_22_1 +1 x_1_22_2 +0 x_1_22_3 +1 x_1_11_0_sb +0 x_1_11_1_sb +1 x_1_11_2_sb +0 x_1_11_3_sb +0 p0_1_11 -1 p1_1_11 >= 0
+0 x_1_22_0 +0 x_1_22_1 +0 x_1_22_2 +1 x_1_22_3 +0 x_1_11_0_sb +1 x_1_11_1_sb -1 x_1_11_2_sb -1 x_1_11_3_sb +0 p0_1_11 -1 p1_1_11 >= -2
-1 x_1_22_0 +0 x_1_22_1 +0 x_1_22_2 -1 x_1_22_3 -1 x_1_11_0_sb +0 x_1_11_1_sb +0 x_1_11_2_sb +1 x_1_11_3_sb +0 p0_1_11 -1 p1_1_11 >= -3
+0 x_1_22_0 +0 x_1_22_1 +0 x_1_22_2 +1 x_1_22_3 -1 x_1_11_0_sb -1 x_1_11_1_sb -1 x_1_11_2_sb +0 x_1_11_3_sb +0 p0_1_11 -1 p1_1_11 >= -3
+1 x_1_22_0 +1 x_1_22_1 +0 x_1_22_2 +1 x_1_22_3 +0 x_1_11_0_sb +0 x_1_11_1_sb +0 x_1_11_2_sb +0 x_1_11_3_sb -1 p0_1_11 +0 p1_1_11 >= 0
+0 x_1_22_0 +0 x_1_22_1 +1 x_1_22_2 +1 x_1_22_3 +0 x_1_11_0_sb -1 x_1_11_1_sb +1 x_1_11_2_sb +0 x_1_11_3_sb +0 p0_1_11 -1 p1_1_11 >= -1
+0 x_1_22_0 +1 x_1_22_1 +0 x_1_22_2 -1 x_1_22_3 -1 x_1_11_0_sb +0 x_1_11_1_sb -1 x_1_11_2_sb +0 x_1_11_3_sb +0 p0_1_11 -1 p1_1_11 >= -3
+0 x_1_22_0 +1 x_1_22_1 +1 x_1_22_2 +0 x_1_22_3 +0 x_1_11_0_sb +0 x_1_11_1_sb +1 x_1_11_2_sb -1 x_1_11_3_sb +0 p0_1_11 -1 p1_1_11 >= -1
-1 x_1_22_0 +0 x_1_22_1 -1 x_1_22_2 +0 x_1_22_3 -1 x_1_11_0_sb +0 x_1_11_1_sb +1 x_1_11_2_sb +0 x_1_11_3_sb +0 p0_1_11 -1 p1_1_11 >= -3
+0 x_1_22_0 -1 x_1_22_1 -1 x_1_22_2 +0 x_1_22_3 +0 x_1_11_0_sb +1 x_1_11_1_sb +0 x_1_11_2_sb +1 x_1_11_3_sb +0 p0_1_11 -1 p1_1_11 >= -2
+0 x_1_22_0 -1 x_1_22_1 +0 x_1_22_2 +0 x_1_22_3 +1 x_1_11_0_sb +1 x_1_11_1_sb +0 x_1_11_2_sb +1 x_1_11_3_sb +0 p0_1_11 +1 p1_1_11 >= 0
-1 x_1_22_0 -1 x_1_22_1 +0 x_1_22_2 +1 x_1_22_3 +0 x_1_11_0_sb +1 x_1_11_1_sb +0 x_1_11_2_sb +1 x_1_11_3_sb +0 p0_1_11 -1 p1_1_11 >= -2
+0 x_1_22_0 -1 x_1_22_1 +0 x_1_22_2 +0 x_1_22_3 +1 x_1_11_0_sb +0 x_1_11_1_sb +1 x_1_11_2_sb +1 x_1_11_3_sb +0 p0_1_11 -1 p1_1_11 >= -1
-1 x_1_22_0 +0 x_1_22_1 -1 x_1_22_2 +0 x_1_22_3 +1 x_1_11_0_sb +1 x_1_11_1_sb +0 x_1_11_2_sb +0 x_1_11_3_sb +0 p0_1_11 -1 p1_1_11 >= -2
+0 x_1_22_0 +1 x_1_22_1 -1 x_1_22_2 -1 x_1_22_3 +0 x_1_11_0_sb +0 x_1_11_1_sb +0 x_1_11_2_sb +1 x_1_11_3_sb +0 p0_1_11 -1 p1_1_11 >= -2
-1 x_1_22_0 -1 x_1_22_1 +0 x_1_22_2 -1 x_1_22_3 +0 x_1_11_0_sb +1 x_1_11_1_sb +0 x_1_11_2_sb -1 x_1_11_3_sb +0 p0_1_11 -1 p1_1_11 >= -4
-1 x_1_22_0 +1 x_1_22_1 +0 x_1_22_2 +1 x_1_22_3 +0 x_1_11_0_sb +1 x_1_11_1_sb +0 x_1_11_2_sb +1 x_1_11_3_sb +0 p0_1_11 +1 p1_1_11 >= 0
+0 x_1_22_0 +0 x_1_22_1 +0 x_1_22_2 +0 x_1_22_3 +1 x_1_11_0_sb -1 x_1_11_1_sb +0 x_1_11_2_sb -1 x_1_11_3_sb +0 p0_1_11 +1 p1_1_11 >= -1
+1 x_1_22_0 +0 x_1_22_1 +1 x_1_22_2 +0 x_1_22_3 +1 x_1_11_0_sb -1 x_1_11_1_sb +0 x_1_11_2_sb +0 x_1_11_3_sb +0 p0_1_11 -1 p1_1_11 >= -1
+0 x_1_22_0 +1 x_1_22_1 +0 x_1_22_2 +1 x_1_22_3 +0 x_1_11_0_sb -1 x_1_11_1_sb -1 x_1_11_2_sb +0 x_1_11_3_sb +0 p0_1_11 -1 p1_1_11 >= -2
+1 x_1_22_0 -1 x_1_22_1 +0 x_1_22_2 -1 x_1_22_3 +0 x_1_11_0_sb +0 x_1_11_1_sb +1 x_1_11_2_sb +0 x_1_11_3_sb +0 p0_1_11 +0 p1_1_11 >= -1
+1 x_1_22_0 -1 x_1_22_1 -1 x_1_22_2 +0 x_1_22_3 +0 x_1_11_0_sb +0 x_1_11_1_sb +1 x_1_11_2_sb -1 x_1_11_3_sb +0 p0_1_11 -1 p1_1_11 >= -3
+1 x_1_22_0 -1 x_1_22_1 +0 x_1_22_2 -1 x_1_22_3 +0 x_1_11_0_sb +0 x_1_11_1_sb +0 x_1_11_2_sb +0 x_1_11_3_sb +0 p0_1_11 +1 p1_1_11 >= -1
+1 x_1_22_0 +0 x_1_22_1 +0 x_1_22_2 +0 x_1_22_3 -1 x_1_11_0_sb +1 x_1_11_1_sb +0 x_1_11_2_sb -1 x_1_11_3_sb +0 p0_1_11 +1 p1_1_11 >= -1
+1 x_1_22_0 +0 x_1_22_1 +0 x_1_22_2 +0 x_1_22_3 -1 x_1_11_0_sb -1 x_1_11_1_sb +0 x_1_11_2_sb +1 x_1_11_3_sb +0 p0_1_11 +1 p1_1_11 >= -1
-1 x_1_22_0 -1 x_1_22_1 +0 x_1_22_2 +1 x_1_22_3 +1 x_1_11_0_sb +0 x_1_11_1_sb +0 x_1_11_2_sb +0 x_1_11_3_sb +0 p0_1_11 +1 p1_1_11 >= -1
-1 x_1_22_0 +1 x_1_22_1 +0 x_1_22_2 -1 x_1_22_3 +1 x_1_11_0_sb +0 x_1_11_1_sb +0 x_1_11_2_sb +0 x_1_11_3_sb +0 p0_1_11 +1 p1_1_11 >= -1
+0 x_1_22_0 -1 x_1_22_1 +0 x_1_22_2 -1 x_1_22_3 +0 x_1_11_0_sb -1 x_1_11_1_sb +0 x_1_11_2_sb -1 x_1_11_3_sb +0 p0_1_11 +1 p1_1_11 >= -3
+1 x_1_22_0 +1 x_1_22_1 +0 x_1_22_2 +1 x_1_22_3 +0 x_1_11_0_sb +0 x_1_11_1_sb -1 x_1_11_2_sb +0 x_1_11_3_sb +0 p0_1_11 +0 p1_1_11 >= 0
-1 x_1_22_0 +0 x_1_22_1 +1 x_1_22_2 -1 x_1_22_3 +0 x_1_11_0_sb -1 x_1_11_1_sb -1 x_1_11_2_sb +0 x_1_11_3_sb +0 p0_1_11 -1 p1_1_11 >= -4
+1 x_1_22_0 +1 x_1_22_1 +0 x_1_22_2 -1 x_1_22_3 +1 x_1_11_0_sb +1 x_1_11_1_sb +0 x_1_11_2_sb -1 x_1_11_3_sb +0 p0_1_11 -1 p1_1_11 >= -2
+1 x_1_22_0 +0 x_1_22_1 +1 x_1_22_2 +0 x_1_22_3 +0 x_1_11_0_sb +1 x_1_11_1_sb +1 x_1_11_2_sb +1 x_1_11_3_sb +0 p0_1_11 -1 p1_1_11 >= 0
+1 x_1_22_0 +0 x_1_22_1 -1 x_1_22_2 -1 x_1_22_3 -1 x_1_11_0_sb -1 x_1_11_1_sb +0 x_1_11_2_sb -1 x_1_11_3_sb +0 p0_1_11 -1 p1_1_11 >= -5
+0 x_1_22_0 +0 x_1_22_1 +1 x_1_22_2 +1 x_1_22_3 -1 x_1_11_0_sb +0 x_1_11_1_sb -1 x_1_11_2_sb +0 x_1_11_3_sb +0 p0_1_11 -1 p1_1_11 >= -2
+0 x_1_22_0 +0 x_1_22_1 +1 x_1_22_2 +0 x_1_22_3 +1 x_1_11_0_sb -1 x_1_11_1_sb +0 x_1_11_2_sb -1 x_1_11_3_sb +0 p0_1_11 +0 p1_1_11 >= -1
+0 x_1_22_0 -1 x_1_22_1 +0 x_1_22_2 -1 x_1_22_3 +0 x_1_11_0_sb +1 x_1_11_1_sb +0 x_1_11_2_sb +1 x_1_11_3_sb +0 p0_1_11 +1 p1_1_11 >= -1
+0 x_1_22_0 +1 x_1_22_1 +0 x_1_22_2 +1 x_1_22_3 +0 x_1_11_0_sb -1 x_1_11_1_sb +0 x_1_11_2_sb -1 x_1_11_3_sb +0 p0_1_11 +1 p1_1_11 >= -1
+1 x_1_22_0 -1 x_1_22_1 +1 x_1_22_2 -1 x_1_22_3 +1 x_1_11_0_sb +0 x_1_11_1_sb +0 x_1_11_2_sb +0 x_1_11_3_sb +0 p0_1_11 +0 p1_1_11 >= -1
+1 x_1_22_0 +0 x_1_22_1 +0 x_1_22_2 +0 x_1_22_3 +1 x_1_11_0_sb -1 x_1_11_1_sb +1 x_1_11_2_sb -1 x_1_11_3_sb +0 p0_1_11 +0 p1_1_11 >= -1
+0 x_1_22_0 -1 x_1_22_1 +0 x_1_22_2 -1 x_1_22_3 +1 x_1_11_0_sb -1 x_1_11_1_sb -1 x_1_11_2_sb -1 x_1_11_3_sb +0 p0_1_11 +0 p1_1_11 >= -4
+1 x_1_22_0 +0 x_1_22_1 +0 x_1_22_2 +1 x_1_22_3 +0 x_1_11_0_sb -1 x_1_11_1_sb -1 x_1_11_2_sb +1 x_1_11_3_sb +0 p0_1_11 -1 p1_1_11 >= -2
+0 x_1_22_0 +0 x_1_22_1 -1 x_1_22_2 +1 x_1_22_3 -1 x_1_11_0_sb +1 x_1_11_1_sb +0 x_1_11_2_sb -1 x_1_11_3_sb +0 p0_1_11 -1 p1_1_11 >= -3
+0 x_1_22_0 +1 x_1_22_1 +0 x_1_22_2 +1 x_1_22_3 -1 x_1_11_0_sb -1 x_1_11_1_sb +0 x_1_11_2_sb +1 x_1_11_3_sb +0 p0_1_11 -1 p1_1_11 >= -2
-1 x_1_22_0 +1 x_1_22_1 +0 x_1_22_2 -1 x_1_22_3 +0 x_1_11_0_sb +0 x_1_11_1_sb -1 x_1_11_2_sb +1 x_1_11_3_sb +0 p0_1_11 -1 p1_1_11 >= -3
-1 x_1_22_0 +0 x_1_22_1 +0 x_1_22_2 +0 x_1_22_3 -1 x_1_11_0_sb +1 x_1_11_1_sb +0 x_1_11_2_sb -1 x_1_11_3_sb +0 p0_1_11 -1 p1_1_11 >= -3
+0 x_1_22_0 +0 x_1_22_1 -1 x_1_22_2 +0 x_1_22_3 +1 x_1_11_0_sb +1 x_1_11_1_sb +0 x_1_11_2_sb +1 x_1_11_3_sb +0 p0_1_11 +0 p1_1_11 >= 0
+0 x_1_24_0 +0 x_1_24_1 +0 x_1_24_2 +0 x_1_24_3 +0 x_1_12_0_sb +0 x_1_12_1_sb +0 x_1_12_2_sb +0 x_1_12_3_sb -1 p0_1_12 -1 p1_1_12 >= -1
+0 x_1_24_0 +0 x_1_24_1 +0 x_1_24_2 +0 x_1_24_3 +0 x_1_12_0_sb +0 x_1_12_1_sb +0 x_1_12_2_sb -1 x_1_12_3_sb +1 p0_1_12 +1 p1_1_12 >= 0
+0 x_1_24_0 +0 x_1_24_1 +0 x_1_24_2 +0 x_1_24_3 +0 x_1_12_0_sb -1 x_1_12_1_sb +0 x_1_12_2_sb +0 x_1_12_3_sb +1 p0_1_12 +1 p1_1_12 >= 0
+0 x_1_24_0 +0 x_1_24_1 +0 x_1_24_2 +0 x_1_24_3 -1 x_1_12_0_sb +0 x_1_12_1_sb +0 x_1_12_2_sb +0 x_1_12_3_sb +1 p0_1_12 +1 p1_1_12 >= 0
+0 x_1_24_0 +0 x_1_24_1 +0 x_1_24_2 +0 x_1_24_3 +1 x_1_12_0_sb +1 x_1_12_1_sb +1 x_1_12_2_sb +1 x_1_12_3_sb +0 p0_1_12 -1 p1_1_12 >= 0
+0 x_1_24_0 +0 x_1_24_1 +0 x_1_24_2 -1 x_1_24_3 +1 x_1_12_0_sb +1 x_1_12_1_sb +0 x_1_12_2_sb +1 x_1_12_3_sb +0 p0_1_12 +1 p1_1_12 >= 0
-1 x_1_24_0 +0 x_1_24_1 -1 x_1_24_2 +0 x_1_24_3 +1 x_1_12_0_sb +0 x_1_12_1_sb +0 x_1_12_2_sb +1 x_1_12_3_sb +0 p0_1_12 -1 p1_1_12 >= -2
+1 x_1_24_0 +0 x_1_24_1 +1 x_1_24_2 +0 x_1_24_3 +1 x_1_12_0_sb +0 x_1_12_1_sb +1 x_1_12_2_sb +0 x_1_12_3_sb +0 p0_1_12 -1 p1_1_12 >= 0
+0 x_1_24_0 +0 x_1_24_1 +0 x_1_24_2 +1 x_1_24_3 +0 x_1_12_0_sb +1 x_1_12_1_sb -1 x_1_12_2_sb -1 x_1_12_3_sb +0 p0_1_12 -1 p1_1_12 >= -2
-1 x_1_24_0 +0 x_1_24_1 +0 x_1_24_2 -1 x_1_24_3 -1 x_1_12_0_sb +0 x_1_12_1_sb +0 x_1_12_2_sb +1 x_1_12_3_sb +0 p0_1_12 -1 p1_1_12 >= -3
+0 x_1_24_0 +0 x_1_24_1 +0 x_1_24_2 +1 x_1_24_3 -1 x_1_12_0_sb -1 x_1_12_1_sb -1 x_1_12_2_sb +0 x_1_12_3_sb +0 p0_1_12 -1 p1_1_12 >= -3
+1 x_1_24_0 +1 x_1_24_1 +0 x_1_24_2 +1 x_1_24_3 +0 x_1_12_0_sb +0 x_1_12_1_sb +0 x_1_12_2_sb +0 x_1_12_3_sb -1 p0_1_12 +0 p1_1_12 >= 0
+0 x_1_24_0 +0 x_1_24_1 +1 x_1_24_2 +1 x_1_24_3 +0 x_1_12_0_sb -1 x_1_12_1_sb +1 x_1_12_2_sb +0 x_1_12_3_sb +0 p0_1_12 -1 p1_1_12 >= -1
+0 x_1_24_0 +1 x_1_24_1 +0 x_1_24_2 -1 x_1_24_3 -1 x_1_12_0_sb +0 x_1_12_1_sb -1 x_1_12_2_sb +0 x_1_12_3_sb +0 p0_1_12 -1 p1_1_12 >= -3
+0 x_1_24_0 +1 x_1_24_1 +1 x_1_24_2 +0 x_1_24_3 +0 x_1_12_0_sb +0 x_1_12_1_sb +1 x_1_12_2_sb -1 x_1_12_3_sb +0 p0_1_12 -1 p1_1_12 >= -1
-1 x_1_24_0 +0 x_1_24_1 -1 x_1_24_2 +0 x_1_24_3 -1 x_1_12_0_sb +0 x_1_12_1_sb +1 x_1_12_2_sb +0 x_1_12_3_sb +0 p0_1_12 -1 p1_1_12 >= -3
+0 x_1_24_0 -1 x_1_24_1 -1 x_1_24_2 +0 x_1_24_3 +0 x_1_12_0_sb +1 x_1_12_1_sb +0 x_1_12_2_sb +1 x_1_12_3_sb +0 p0_1_12 -1 p1_1_12 >= -2
+0 x_1_24_0 -1 x_1_24_1 +0 x_1_24_2 +0 x_1_24_3 +1 x_1_12_0_sb +1 x_1_12_1_sb +0 x_1_12_2_sb +1 x_1_12_3_sb +0 p0_1_12 +1 p1_1_12 >= 0
-1 x_1_24_0 -1 x_1_24_1 +0 x_1_24_2 +1 x_1_24_3 +0 x_1_12_0_sb +1 x_1_12_1_sb +0 x_1_12_2_sb +1 x_1_12_3_sb +0 p0_1_12 -1 p1_1_12 >= -2
+0 x_1_24_0 -1 x_1_24_1 +0 x_1_24_2 +0 x_1_24_3 +1 x_1_12_0_sb +0 x_1_12_1_sb +1 x_1_12_2_sb +1 x_1_12_3_sb +0 p0_1_12 -1 p1_1_12 >= -1
-1 x_1_24_0 +0 x_1_24_1 -1 x_1_24_2 +0 x_1_24_3 +1 x_1_12_0_sb +1 x_1_12_1_sb +0 x_1_12_2_sb +0 x_1_12_3_sb +0 p0_1_12 -1 p1_1_12 >= -2
+0 x_1_24_0 +1 x_1_24_1 -1 x_1_24_2 -1 x_1_24_3 +0 x_1_12_0_sb +0 x_1_12_1_sb +0 x_1_12_2_sb +1 x_1_12_3_sb +0 p0_1_12 -1 p1_1_12 >= -2
-1 x_1_24_0 -1 x_1_24_1 +0 x_1_24_2 -1 x_1_24_3 +0 x_1_12_0_sb +1 x_1_12_1_sb +0 x_1_12_2_sb -1 x_1_12_3_sb +0 p0_1_12 -1 p1_1_12 >= -4
-1 x_1_24_0 +1 x_1_24_1 +0 x_1_24_2 +1 x_1_24_3 +0 x_1_12_0_sb +1 x_1_12_1_sb +0 x_1_12_2_sb +1 x_1_12_3_sb +0 p0_1_12 +1 p1_1_12 >= 0
+0 x_1_24_0 +0 x_1_24_1 +0 x_1_24_2 +0 x_1_24_3 +1 x_1_12_0_sb -1 x_1_12_1_sb +0 x_1_12_2_sb -1 x_1_12_3_sb +0 p0_1_12 +1 p1_1_12 >= -1
+1 x_1_24_0 +0 x_1_24_1 +1 x_1_24_2 +0 x_1_24_3 +1 x_1_12_0_sb -1 x_1_12_1_sb +0 x_1_12_2_sb +0 x_1_12_3_sb +0 p0_1_12 -1 p1_1_12 >= -1
+0 x_1_24_0 +1 x_1_24_1 +0 x_1_24_2 +1 x_1_24_3 +0 x_1_12_0_sb -1 x_1_12_1_sb -1 x_1_12_2_sb +0 x_1_12_3_sb +0 p0_1_12 -1 p1_1_12 >= -2
+1 x_1_24_0 -1 x_1_24_1 +0 x_1_24_2 -1 x_1_24_3 +0 x_1_12_0_sb +0 x_1_12_1_sb +1 x_1_12_2_sb +0 x_1_12_3_sb +0 p0_1_12 +0 p1_1_12 >= -1
+1 x_1_24_0 -1 x_1_24_1 -1 x_1_24_2 +0 x_1_24_3 +0 x_1_12_0_sb +0 x_1_12_1_sb +1 x_1_12_2_sb -1 x_1_12_3_sb +0 p0_1_12 -1 p1_1_12 >= -3
+1 x_1_24_0 -1 x_1_24_1 +0 x_1_24_2 -1 x_1_24_3 +0 x_1_12_0_sb +0 x_1_12_1_sb +0 x_1_12_2_sb +0 x_1_12_3_sb +0 p0_1_12 +1 p1_1_12 >= -1
+1 x_1_24_0 +0 x_1_24_1 +0 x_1_24_2 +0 x_1_24_3 -1 x_1_12_0_sb +1 x_1_12_1_sb +0 x_1_12_2_sb -1 x_1_12_3_sb +0 p0_1_12 +1 p1_1_12 >= -1
+1 x_1_24_0 +0 x_1_24_1 +0 x_1_24_2 +0 x_1_24_3 -1 x_1_12_0_sb -1 x_1_12_1_sb +0 x_1_12_2_sb +1 x_1_12_3_sb +0 p0_1_12 +1 p1_1_12 >= -1
-1 x_1_24_0 -1 x_1_24_1 +0 x_1_24_2 +1 x_1_24_3 +1 x_1_12_0_sb +0 x_1_12_1_sb +0 x_1_12_2_sb +0 x_1_12_3_sb +0 p0_1_12 +1 p1_1_12 >= -1
-1 x_1_24_0 +1 x_1_24_1 +0 x_1_24_2 -1 x_1_24_3 +1 x_1_12_0_sb +0 x_1_12_1_sb +0 x_1_12_2_sb +0 x_1_12_3_sb +0 p0_1_12 +1 p1_1_12 >= -1
+0 x_1_24_0 -1 x_1_24_1 +0 x_1_24_2 -1 x_1_24_3 +0 x_1_12_0_sb -1 x_1_12_1_sb +0 x_1_12_2_sb -1 x_1_12_3_sb +0 p0_1_12 +1 p1_1_12 >= -3
+1 x_1_24_0 +1 x_1_24_1 +0 x_1_24_2 +1 x_1_24_3 +0 x_1_12_0_sb +0 x_1_12_1_sb -1 x_1_12_2_sb +0 x_1_12_3_sb +0 p0_1_12 +0 p1_1_12 >= 0
-1 x_1_24_0 +0 x_1_24_1 +1 x_1_24_2 -1 x_1_24_3 +0 x_1_12_0_sb -1 x_1_12_1_sb -1 x_1_12_2_sb +0 x_1_12_3_sb +0 p0_1_12 -1 p1_1_12 >= -4
+1 x_1_24_0 +1 x_1_24_1 +0 x_1_24_2 -1 x_1_24_3 +1 x_1_12_0_sb +1 x_1_12_1_sb +0 x_1_12_2_sb -1 x_1_12_3_sb +0 p0_1_12 -1 p1_1_12 >= -2
+1 x_1_24_0 +0 x_1_24_1 +1 x_1_24_2 +0 x_1_24_3 +0 x_1_12_0_sb +1 x_1_12_1_sb +1 x_1_12_2_sb +1 x_1_12_3_sb +0 p0_1_12 -1 p1_1_12 >= 0
+1 x_1_24_0 +0 x_1_24_1 -1 x_1_24_2 -1 x_1_24_3 -1 x_1_12_0_sb -1 x_1_12_1_sb +0 x_1_12_2_sb -1 x_1_12_3_sb +0 p0_1_12 -1 p1_1_12 >= -5
+0 x_1_24_0 +0 x_1_24_1 +1 x_1_24_2 +1 x_1_24_3 -1 x_1_12_0_sb +0 x_1_12_1_sb -1 x_1_12_2_sb +0 x_1_12_3_sb +0 p0_1_12 -1 p1_1_12 >= -2
+0 x_1_24_0 +0 x_1_24_1 +1 x_1_24_2 +0 x_1_24_3 +1 x_1_12_0_sb -1 x_1_12_1_sb +0 x_1_12_2_sb -1 x_1_12_3_sb +0 p0_1_12 +0 p1_1_12 >= -1
+0 x_1_24_0 -1 x_1_24_1 +0 x_1_24_2 -1 x_1_24_3 +0 x_1_12_0_sb +1 x_1_12_1_sb +0 x_1_12_2_sb +1 x_1_12_3_sb +0 p0_1_12 +1 p1_1_12 >= -1
+0 x_1_24_0 +1 x_1_24_1 +0 x_1_24_2 +1 x_1_24_3 +0 x_1_12_0_sb -1 x_1_12_1_sb +0 x_1_12_2_sb -1 x_1_12_3_sb +0 p0_1_12 +1 p1_1_12 >= -1
+1 x_1_24_0 -1 x_1_24_1 +1 x_1_24_2 -1 x_1_24_3 +1 x_1_12_0_sb +0 x_1_12_1_sb +0 x_1_12_2_sb +0 x_1_12_3_sb +0 p0_1_12 +0 p1_1_12 >= -1
+1 x_1_24_0 +0 x_1_24_1 +0 x_1_24_2 +0 x_1_24_3 +1 x_1_12_0_sb -1 x_1_12_1_sb +1 x_1_12_2_sb -1 x_1_12_3_sb +0 p0_1_12 +0 p1_1_12 >= -1
+0 x_1_24_0 -1 x_1_24_1 +0 x_1_24_2 -1 x_1_24_3 +1 x_1_12_0_sb -1 x_1_12_1_sb -1 x_1_12_2_sb -1 x_1_12_3_sb +0 p0_1_12 +0 p1_1_12 >= -4
+1 x_1_24_0 +0 x_1_24_1 +0 x_1_24_2 +1 x_1_24_3 +0 x_1_12_0_sb -1 x_1_12_1_sb -1 x_1_12_2_sb +1 x_1_12_3_sb +0 p0_1_12 -1 p1_1_12 >= -2
+0 x_1_24_0 +0 x_1_24_1 -1 x_1_24_2 +1 x_1_24_3 -1 x_1_12_0_sb +1 x_1_12_1_sb +0 x_1_12_2_sb -1 x_1_12_3_sb +0 p0_1_12 -1 p1_1_12 >= -3
+0 x_1_24_0 +1 x_1_24_1 +0 x_1_24_2 +1 x_1_24_3 -1 x_1_12_0_sb -1 x_1_12_1_sb +0 x_1_12_2_sb +1 x_1_12_3_sb +0 p0_1_12 -1 p1_1_12 >= -2
-1 x_1_24_0 +1 x_1_24_1 +0 x_1_24_2 -1 x_1_24_3 +0 x_1_12_0_sb +0 x_1_12_1_sb -1 x_1_12_2_sb +1 x_1_12_3_sb +0 p0_1_12 -1 p1_1_12 >= -3
-1 x_1_24_0 +0 x_1_24_1 +0 x_1_24_2 +0 x_1_24_3 -1 x_1_12_0_sb +1 x_1_12_1_sb +0 x_1_12_2_sb -1 x_1_12_3_sb +0 p0_1_12 -1 p1_1_12 >= -3
+0 x_1_24_0 +0 x_1_24_1 -1 x_1_24_2 +0 x_1_24_3 +1 x_1_12_0_sb +1 x_1_12_1_sb +0 x_1_12_2_sb +1 x_1_12_3_sb +0 p0_1_12 +0 p1_1_12 >= 0
+0 x_1_26_0 +0 x_1_26_1 +0 x_1_26_2 +0 x_1_26_3 +0 x_1_13_0_sb +0 x_1_13_1_sb +0 x_1_13_2_sb +0 x_1_13_3_sb -1 p0_1_13 -1 p1_1_13 >= -1
+0 x_1_26_0 +0 x_1_26_1 +0 x_1_26_2 +0 x_1_26_3 +0 x_1_13_0_sb +0 x_1_13_1_sb +0 x_1_13_2_sb -1 x_1_13_3_sb +1 p0_1_13 +1 p1_1_13 >= 0
+0 x_1_26_0 +0 x_1_26_1 +0 x_1_26_2 +0 x_1_26_3 +0 x_1_13_0_sb -1 x_1_13_1_sb +0 x_1_13_2_sb +0 x_1_13_3_sb +1 p0_1_13 +1 p1_1_13 >= 0
+0 x_1_26_0 +0 x_1_26_1 +0 x_1_26_2 +0 x_1_26_3 -1 x_1_13_0_sb +0 x_1_13_1_sb +0 x_1_13_2_sb +0 x_1_13_3_sb +1 p0_1_13 +1 p1_1_13 >= 0
+0 x_1_26_0 +0 x_1_26_1 +0 x_1_26_2 +0 x_1_26_3 +1 x_1_13_0_sb +1 x_1_13_1_sb +1 x_1_13_2_sb +1 x_1_13_3_sb +0 p0_1_13 -1 p1_1_13 >= 0
+0 x_1_26_0 +0 x_1_26_1 +0 x_1_26_2 -1 x_1_26_3 +1 x_1_13_0_sb +1 x_1_13_1_sb +0 x_1_13_2_sb +1 x_1_13_3_sb +0 p0_1_13 +1 p1_1_13 >= 0
-1 x_1_26_0 +0 x_1_26_1 -1 x_1_26_2 +0 x_1_26_3 +1 x_1_13_0_sb +0 x_1_13_1_sb +0 x_1_13_2_sb +1 x_1_13_3_sb +0 p0_1_13 -1 p1_1_13 >= -2
+1 x_1_26_0 +0 x_1_26_1 +1 x_1_26_2 +0 x_1_26_3 +1 x_1_13_0_sb +0 x_1_13_1_sb +1 x_1_13_2_sb +0 x_1_13_3_sb +0 p0_1_13 -1 p1_1_13 >= 0
+0 x_1_26_0 +0 x_1_26_1 +0 x_1_26_2 +1 x_1_26_3 +0 x_1_13_0_sb +1 x_1_13_1_sb -1 x_1_13_2_sb -1 x_1_13_3_sb +0 p0_1_13 -1 p1_1_13 >= -2
-1 x_1_26_0 +0 x_1_26_1 +0 x_1_26_2 -1 x_1_26_3 -1 x_1_13_0_sb +0 x_1_13_1_sb +0 x_1_13_2_sb +1 x_1_13_3_sb +0 p0_1_13 -1 p1_1_13 >= -3
+0 x_1_26_0 +0 x_1_26_1 +0 x_1_26_2 +1 x_1_26_3 -1 x_1_13_0_sb -1 x_1_13_1_sb -1 x_1_13_2_sb +0 x_1_13_3_sb +0 p0_1_13 -1 p1_1_13 >= -3
+1 x_1_26_0 +1 x_1_26_1 +0 x_1_26_2 +1 x_1_26_3 +0 x_1_13_0_sb +0 x_1_13_1_sb +0 x_1_13_2_sb +0 x_1_13_3_sb -1 p0_1_13 +0 p1_1_13 >= 0
+0 x_1_26_0 +0 x_1_26_1 +1 x_1_26_2 +1 x_1_26_3 +0 x_1_13_0_sb -1 x_1_13_1_sb +1 x_1_13_2_sb +0 x_1_13_3_sb +0 p0_1_13 -1 p1_1_13 >= -1
+0 x_1_26_0 +1 x_1_26_1 +0 x_1_26_2 -1 x_1_26_3 -1 x_1_13_0_sb +0 x_1_13_1_sb -1 x_1_13_2_sb +0 x_1_13_3_sb +0 p0_1_13 -1 p1_1_13 >= -3
+0 x_1_26_0 +1 x_1_26_1 +1 x_1_26_2 +0 x_1_26_3 +0 x_1_13_0_sb +0 x_1_13_1_sb +1 x_1_13_2_sb -1 x_1_13_3_sb +0 p0_1_13 -1 p1_1_13 >= -1
-1 x_1_26_0 +0 x_1_26_1 -1 x_1_26_2 +0 x_1_26_3 -1 x_1_13_0_sb +0 x_1_13_1_sb +1 x_1_13_2_sb +0 x_1_13_3_sb +0 p0_1_13 -1 p1_1_13 >= -3
+0 x_1_26_0 -1 x_1_26_1 -1 x_1_26_2 +0 x_1_26_3 +0 x_1_13_0_sb +1 x_1_13_1_sb +0 x_1_13_2_sb +1 x_1_13_3_sb +0 p0_1_13 -1 p1_1_13 >= -2
+0 x_1_26_0 -1 x_1_26_1 +0 x_1_26_2 +0 x_1_26_3 +1 x_1_13_0_sb +1 x_1_13_1_sb +0 x_1_13_2_sb +1 x_1_13_3_sb +0 p0_1_13 +1 p1_1_13 >= 0
-1 x_1_26_0 -1 x_1_26_1 +0 x_1_26_2 +1 x_1_26_3 +0 x_1_13_0_sb +1 x_1_13_1_sb +0 x_1_13_2_sb +1 x_1_13_3_sb +0 p0_1_13 -1 p1_1_13 >= -2
+0 x_1_26_0 -1 x_1_26_1 +0 x_1_26_2 +0 x_1_26_3 +1 x_1_13_0_sb +0 x_1_13_1_sb +1 x_1_13_2_sb +1 x_1_13_3_sb +0 p0_1_13 -1 p1_1_13 >= -1
-1 x_1_26_0 +0 x_1_26_1 -1 x_1_26_2 +0 x_1_26_3 +1 x_1_13_0_sb +1 x_1_13_1_sb +0 x_1_13_2_sb +0 x_1_13_3_sb +0 p0_1_13 -1 p1_1_13 >= -2
+0 x_1_26_0 +1 x_1_26_1 -1 x_1_26_2 -1 x_1_26_3 +0 x_1_13_0_sb +0 x_1_13_1_sb +0 x_1_13_2_sb +1 x_1_13_3_sb +0 p0_1_13 -1 p1_1_13 >= -2
-1 x_1_26_0 -1 x_1_26_1 +0 x_1_26_2 -1 x_1_26_3 +0 x_1_13_0_sb +1 x_1_13_1_sb +0 x_1_13_2_sb -1 x_1_13_3_sb +0 p0_1_13 -1 p1_1_13 >= -4
-1 x_1_26_0 +1 x_1_26_1 +0 x_1_26_2 +1 x_1_26_3 +0 x_1_13_0_sb +1 x_1_13_1_sb +0 x_1_13_2_sb +1 x_1_13_3_sb +0 p0_1_13 +1 p1_1_13 >= 0
+0 x_1_26_0 +0 x_1_26_1 +0 x_1_26_2 +0 x_1_26_3 +1 x_1_13_0_sb -1 x_1_13_1_sb +0 x_1_13_2_sb -1 x_1_13_3_sb +0 p0_1_13 +1 p1_1_13 >= -1
+1 x_1_26_0 +0 x_1_26_1 +1 x_1_26_2 +0 x_1_26_3 +1 x_1_13_0_sb -1 x_1_13_1_sb +0 x_1_13_2_sb +0 x_1_13_3_sb +0 p0_1_13 -1 p1_1_13 >= -1
+0 x_1_26_0 +1 x_1_26_1 +0 x_1_26_2 +1 x_1_26_3 +0 x_1_13_0_sb -1 x_1_13_1_sb -1 x_1_13_2_sb +0 x_1_13_3_sb +0 p0_1_13 -1 p1_1_13 >= -2
+1 x_1_26_0 -1 x_1_26_1 +0 x_1_26_2 -1 x_1_26_3 +0 x_1_13_0_sb +0 x_1_13_1_sb +1 x_1_13_2_sb +0 x_1_13_3_sb +0 p0_1_13 +0 p1_1_13 >= -1
+1 x_1_26_0 -1 x_1_26_1 -1 x_1_26_2 +0 x_1_26_3 +0 x_1_13_0_sb +0 x_1_13_1_sb +1 x_1_13_2_sb -1 x_1_13_3_sb +0 p0_1_13 -1 p1_1_13 >= -3
+1 x_1_26_0 -1 x_1_26_1 +0 x_1_26_2 -1 x_1_26_3 +0 x_1_13_0_sb +0 x_1_13_1_sb +0 x_1_13_2_sb +0 x_1_13_3_sb +0 p0_1_13 +1 p1_1_13 >= -1
+1 x_1_26_0 +0 x_1_26_1 +0 x_1_26_2 +0 x_1_26_3 -1 x_1_13_0_sb +1 x_1_13_1_sb +0 x_1_13_2_sb -1 x_1_13_3_sb +0 p0_1_13 +1 p1_1_13 >= -1
+1 x_1_26_0 +0 x_1_26_1 +0 x_1_26_2 +0 x_1_26_3 -1 x_1_13_0_sb -1 x_1_13_1_sb +0 x_1_13_2_sb +1 x_1_13_3_sb +0 p0_1_13 +1 p1_1_13 >= -1
-1 x_1_26_0 -1 x_1_26_1 +0 x_1_26_2 +1 x_1_26_3 +1 x_1_13_0_sb +0 x_1_13_1_sb +0 x_1_13_2_sb +0 x_1_13_3_sb +0 p0_1_13 +1 p1_1_13 >= -1
-1 x_1_26_0 +1 x_1_26_1 +0 x_1_26_2 -1 x_1_26_3 +1 x_1_13_0_sb +0 x_1_13_1_sb +0 x_1_13_2_sb +0 x_1_13_3_sb +0 p0_1_13 +1 p1_1_13 >= -1
+0 x_1_26_0 -1 x_1_26_1 +0 x_1_26_2 -1 x_1_26_3 +0 x_1_13_0_sb -1 x_1_13_1_sb +0 x_1_13_2_sb -1 x_1_13_3_sb +0 p0_1_13 +1 p1_1_13 >= -3
+1 x_1_26_0 +1 x_1_26_1 +0 x_1_26_2 +1 x_1_26_3 +0 x_1_13_0_sb +0 x_1_13_1_sb -1 x_1_13_2_sb +0 x_1_13_3_sb +0 p0_1_13 +0 p1_1_13 >= 0
-1 x_1_26_0 +0 x_1_26_1 +1 x_1_26_2 -1 x_1_26_3 +0 x_1_13_0_sb -1 x_1_13_1_sb -1 x_1_13_2_sb +0 x_1_13_3_sb +0 p0_1_13 -1 p1_1_13 >= -4
+1 x_1_26_0 +1 x_1_26_1 +0 x_1_26_2 -1 x_1_26_3 +1 x_1_13_0_sb +1 x_1_13_1_sb +0 x_1_13_2_sb -1 x_1_13_3_sb +0 p0_1_13 -1 p1_1_13 >= -2
+1 x_1_26_0 +0 x_1_26_1 +1 x_1_26_2 +0 x_1_26_3 +0 x_1_13_0_sb +1 x_1_13_1_sb +1 x_1_13_2_sb +1 x_1_13_3_sb +0 p0_1_13 -1 p1_1_13 >= 0
+1 x_1_26_0 +0 x_1_26_1 -1 x_1_26_2 -1 x_1_26_3 -1 x_1_13_0_sb -1 x_1_13_1_sb +0 x_1_13_2_sb -1 x_1_13_3_sb +0 p0_1_13 -1 p1_1_13 >= -5
+0 x_1_26_0 +0 x_1_26_1 +1 x_1_26_2 +1 x_1_26_3 -1 x_1_13_0_sb +0 x_1_13_1_sb -1 x_1_13_2_sb +0 x_1_13_3_sb +0 p0_1_13 -1 p1_1_13 >= -2
+0 x_1_26_0 +0 x_1_26_1 +1 x_1_26_2 +0 x_1_26_3 +1 x_1_13_0_sb -1 x_1_13_1_sb +0 x_1_13_2_sb -1 x_1_13_3_sb +0 p0_1_13 +0 p1_1_13 >= -1
+0 x_1_26_0 -1 x_1_26_1 +0 x_1_26_2 -1 x_1_26_3 +0 x_1_13_0_sb +1 x_1_13_1_sb +0 x_1_13_2_sb +1 x_1_13_3_sb +0 p0_1_13 +1 p1_1_13 >= -1
+0 x_1_26_0 +1 x_1_26_1 +0 x_1_26_2 +1 x_1_26_3 +0 x_1_13_0_sb -1 x_1_13_1_sb +0 x_1_13_2_sb -1 x_1_13_3_sb +0 p0_1_13 +1 p1_1_13 >= -1
+1 x_1_26_0 -1 x_1_26_1 +1 x_1_26_2 -1 x_1_26_3 +1 x_1_13_0_sb +0 x_1_13_1_sb +0 x_1_13_2_sb +0 x_1_13_3_sb +0 p0_1_13 +0 p1_1_13 >= -1
+1 x_1_26_0 +0 x_1_26_1 +0 x_1_26_2 +0 x_1_26_3 +1 x_1_13_0_sb -1 x_1_13_1_sb +1 x_1_13_2_sb -1 x_1_13_3_sb +0 p0_1_13 +0 p1_1_13 >= -1
+0 x_1_26_0 -1 x_1_26_1 +0 x_1_26_2 -1 x_1_26_3 +1 x_1_13_0_sb -1 x_1_13_1_sb -1 x_1_13_2_sb -1 x_1_13_3_sb +0 p0_1_13 +0 p1_1_13 >= -4
+1 x_1_26_0 +0 x_1_26_1 +0 x_1_26_2 +1 x_1_26_3 +0 x_1_13_0_sb -1 x_1_13_1_sb -1 x_1_13_2_sb +1 x_1_13_3_sb +0 p0_1_13 -1 p1_1_13 >= -2
+0 x_1_26_0 +0 x_1_26_1 -1 x_1_26_2 +1 x_1_26_3 -1 x_1_13_0_sb +1 x_1_13_1_sb +0 x_1_13_2_sb -1 x_1_13_3_sb +0 p0_1_13 -1 p1_1_13 >= -3
+0 x_1_26_0 +1 x_1_26_1 +0 x_1_26_2 +1 x_1_26_3 -1 x_1_13_0_sb -1 x_1_13_1_sb +0 x_1_13_2_sb +1 x_1_13_3_sb +0 p0_1_13 -1 p1_1_13 >= -2
-1 x_1_26_0 +1 x_1_26_1 +0 x_1_26_2 -1 x_1_26_3 +0 x_1_13_0_sb +0 x_1_13_1_sb -1 x_1_13_2_sb +1 x_1_13_3_sb +0 p0_1_13 -1 p1_1_13 >= -3
-1 x_1_26_0 +0 x_1_26_1 +0 x_1_26_2 +0 x_1_26_3 -1 x_1_13_0_sb +1 x_1_13_1_sb +0 x_1_13_2_sb -1 x_1_13_3_sb +0 p0_1_13 -1 p1_1_13 >= -3
+0 x_1_26_0 +0 x_1_26_1 -1 x_1_26_2 +0 x_1_26_3 +1 x_1_13_0_sb +1 x_1_13_1_sb +0 x_1_13_2_sb +1 x_1_13_3_sb +0 p0_1_13 +0 p1_1_13 >= 0
+0 x_1_28_0 +0 x_1_28_1 +0 x_1_28_2 +0 x_1_28_3 +0 x_1_14_0_sb +0 x_1_14_1_sb +0 x_1_14_2_sb +0 x_1_14_3_sb -1 p0_1_14 -1 p1_1_14 >= -1
+0 x_1_28_0 +0 x_1_28_1 +0 x_1_28_2 +0 x_1_28_3 +0 x_1_14_0_sb +0 x_1_14_1_sb +0 x_1_14_2_sb -1 x_1_14_3_sb +1 p0_1_14 +1 p1_1_14 >= 0
+0 x_1_28_0 +0 x_1_28_1 +0 x_1_28_2 +0 x_1_28_3 +0 x_1_14_0_sb -1 x_1_14_1_sb +0 x_1_14_2_sb +0 x_1_14_3_sb +1 p0_1_14 +1 p1_1_14 >= 0
+0 x_1_28_0 +0 x_1_28_1 +0 x_1_28_2 +0 x_1_28_3 -1 x_1_14_0_sb +0 x_1_14_1_sb +0 x_1_14_2_sb +0 x_1_14_3_sb +1 p0_1_14 +1 p1_1_14 >= 0
+0 x_1_28_0 +0 x_1_28_1 +0 x_1_28_2 +0 x_1_28_3 +1 x_1_14_0_sb +1 x_1_14_1_sb +1 x_1_14_2_sb +1 x_1_14_3_sb +0 p0_1_14 -1 p1_1_14 >= 0
+0 x_1_28_0 +0 x_1_28_1 +0 x_1_28_2 -1 x_1_28_3 +1 x_1_14_0_sb +1 x_1_14_1_sb +0 x_1_14_2_sb +1 x_1_14_3_sb +0 p0_1_14 +1 p1_1_14 >= 0
-1 x_1_28_0 +0 x_1_28_1 -1 x_1_28_2 +0 x_1_28_3 +1 x_1_14_0_sb +0 x_1_14_1_sb +0 x_1_14_2_sb +1 x_1_14_3_sb +0 p0_1_14 -1 p1_1_14 >= -2
+1 x_1_28_0 +0 x_1_28_1 +1 x_1_28_2 +0 x_1_28_3 +1 x_1_14_0_sb +0 x_1_14_1_sb +1 x_1_14_2_sb +0 x_1_14_3_sb +0 p0_1_14 -1 p1_1_14 >= 0
+0 x_1_28_0 +0 x_1_28_1 +0 x_1_28_2 +1 x_1_28_3 +0 x_1_14_0_sb +1 x_1_14_1_sb -1 x_1_14_2_sb -1 x_1_14_3_sb +0 p0_1_14 -1 p1_1_14 >= -2
-1 x_1_28_0 +0 x_1_28_1 +0 x_1_28_2 -1 x_1_28_3 -1 x_1_14_0_sb +0 x_1_14_1_sb +0 x_1_14_2_sb +1 x_1_14_3_sb +0 p0_1_14 -1 p1_1_14 >= -3
+0 x_1_28_0 +0 x_1_28_1 +0 x_1_28_2 +1 x_1_28_3 -1 x_1_14_0_sb -1 x_1_14_1_sb -1 x_1_14_2_sb +0 x_1_14_3_sb +0 p0_1_14 -1 p1_1_14 >= -3
+1 x_1_28_0 +1 x_1_28_1 +0 x_1_28_2 +1 x_1_28_3 +0 x_1_14_0_sb +0 x_1_14_1_sb +0 x_1_14_2_sb +0 x_1_14_3_sb -1 p0_1_14 +0 p1_1_14 >= 0
+0 x_1_28_0 +0 x_1_28_1 +1 x_1_28_2 +1 x_1_28_3 +0 x_1_14_0_sb -1 x_1_14_1_sb +1 x_1_14_2_sb +0 x_1_14_3_sb +0 p0_1_14 -1 p1_1_14 >= -1
+0 x_1_28_0 +1 x_1_28_1 +0 x_1_28_2 -1 x_1_28_3 -1 x_1_14_0_sb +0 x_1_14_1_sb -1 x_1_14_2_sb +0 x_1_14_3_sb +0 p0_1_14 -1 p1_1_14 >= -3
+0 x_1_28_0 +1 x_1_28_1 +1 x_1_28_2 +0 x_1_28_3 +0 x_1_14_0_sb +0 x_1_14_1_sb +1 x_1_14_2_sb -1 x_1_14_3_sb +0 p0_1_14 -1 p1_1_14 >= -1
-1 x_1_28_0 +0 x_1_28_1 -1 x_1_28_2 +0 x_1_28_3 -1 x_1_14_0_sb +0 x_1_14_1_sb +1 x_1_14_2_sb +0 x_1_14_3_sb +0 p0_1_14 -1 p1_1_14 >= -3
+0 x_1_28_0 -1 x_1_28_1 -1 x_1_28_2 +0 x_1_28_3 +0 x_1_14_0_sb +1 x_1_14_1_sb +0 x_1_14_2_sb +1 x_1_14_3_sb +0 p0_1_14 -1 p1_1_14 >= -2
+0 x_1_28_0 -1 x_1_28_1 +0 x_1_28_2 +0 x_1_28_3 +1 x_1_14_0_sb +1 x_1_14_1_sb +0 x_1_14_2_sb +1 x_1_14_3_sb +0 p0_1_14 +1 p1_1_14 >= 0
-1 x_1_28_0 -1 x_1_28_1 +0 x_1_28_2 +1 x_1_28_3 +0 x_1_14_0_sb +1 x_1_14_1_sb +0 x_1_14_2_sb +1 x_1_14_3_sb +0 p0_1_14 -1 p1_1_14 >= -2
+0 x_1_28_0 -1 x_1_28_1 +0 x_1_28_2 +0 x_1_28_3 +1 x_1_14_0_sb +0 x_1_14_1_sb +1 x_1_14_2_sb +1 x_1_14_3_sb +0 p0_1_14 -1 p1_1_14 >= -1
-1 x_1_28_0 +0 x_1_28_1 -1 x_1_28_2 +0 x_1_28_3 +1 x_1_14_0_sb +1 x_1_14_1_sb +0 x_1_14_2_sb +0 x_1_14_3_sb +0 p0_1_14 -1 p1_1_14 >= -2
+0 x_1_28_0 +1 x_1_28_1 -1 x_1_28_2 -1 x_1_28_3 +0 x_1_14_0_sb +0 x_1_14_1_sb +0 x_1_14_2_sb +1 x_1_14_3_sb +0 p0_1_14 -1 p1_1_14 >= -2
-1 x_1_28_0 -1 x_1_28_1 +0 x_1_28_2 -1 x_1_28_3 +0 x_1_14_0_sb +1 x_1_14_1_sb +0 x_1_14_2_sb -1 x_1_14_3_sb +0 p0_1_14 -1 p1_1_14 >= -4
-1 x_1_28_0 +1 x_1_28_1 +0 x_1_28_2 +1 x_1_28_3 +0 x_1_14_0_sb +1 x_1_14_1_sb +0 x_1_14_2_sb +1 x_1_14_3_sb +0 p0_1_14 +1 p1_1_14 >= 0
+0 x_1_28_0 +0 x_1_28_1 +0 x_1_28_2 +0 x_1_28_3 +1 x_1_14_0_sb -1 x_1_14_1_sb +0 x_1_14_2_sb -1 x_1_14_3_sb +0 p0_1_14 +1 p1_1_14 >= -1
+1 x_1_28_0 +0 x_1_28_1 +1 x_1_28_2 +0 x_1_28_3 +1 x_1_14_0_sb -1 x_1_14_1_sb +0 x_1_14_2_sb +0 x_1_14_3_sb +0 p0_1_14 -1 p1_1_14 >= -1
+0 x_1_28_0 +1 x_1_28_1 +0 x_1_28_2 +1 x_1_28_3 +0 x_1_14_0_sb -1 x_1_14_1_sb -1 x_1_14_2_sb +0 x_1_14_3_sb +0 p0_1_14 -1 p1_1_14 >= -2
+1 x_1_28_0 -1 x_1_28_1 +0 x_1_28_2 -1 x_1_28_3 +0 x_1_14_0_sb +0 x_1_14_1_sb +1 x_1_14_2_sb +0 x_1_14_3_sb +0 p0_1_14 +0 p1_1_14 >= -1
+1 x_1_28_0 -1 x_1_28_1 -1 x_1_28_2 +0 x_1_28_3 +0 x_1_14_0_sb +0 x_1_14_1_sb +1 x_1_14_2_sb -1 x_1_14_3_sb +0 p0_1_14 -1 p1_1_14 >= -3
+1 x_1_28_0 -1 x_1_28_1 +0 x_1_28_2 -1 x_1_28_3 +0 x_1_14_0_sb +0 x_1_14_1_sb +0 x_1_14_2_sb +0 x_1_14_3_sb +0 p0_1_14 +1 p1_1_14 >= -1
+1 x_1_28_0 +0 x_1_28_1 +0 x_1_28_2 +0 x_1_28_3 -1 x_1_14_0_sb +1 x_1_14_1_sb +0 x_1_14_2_sb -1 x_1_14_3_sb +0 p0_1_14 +1 p1_1_14 >= -1
+1 x_1_28_0 +0 x_1_28_1 +0 x_1_28_2 +0 x_1_28_3 -1 x_1_14_0_sb -1 x_1_14_1_sb +0 x_1_14_2_sb +1 x_1_14_3_sb +0 p0_1_14 +1 p1_1_14 >= -1
-1 x_1_28_0 -1 x_1_28_1 +0 x_1_28_2 +1 x_1_28_3 +1 x_1_14_0_sb +0 x_1_14_1_sb +0 x_1_14_2_sb +0 x_1_14_3_sb +0 p0_1_14 +1 p1_1_14 >= -1
-1 x_1_28_0 +1 x_1_28_1 +0 x_1_28_2 -1 x_1_28_3 +1 x_1_14_0_sb +0 x_1_14_1_sb +0 x_1_14_2_sb +0 x_1_14_3_sb +0 p0_1_14 +1 p1_1_14 >= -1
+0 x_1_28_0 -1 x_1_28_1 +0 x_1_28_2 -1 x_1_28_3 +0 x_1_14_0_sb -1 x_1_14_1_sb +0 x_1_14_2_sb -1 x_1_14_3_sb +0 p0_1_14 +1 p1_1_14 >= -3
+1 x_1_28_0 +1 x_1_28_1 +0 x_1_28_2 +1 x_1_28_3 +0 x_1_14_0_sb +0 x_1_14_1_sb -1 x_1_14_2_sb +0 x_1_14_3_sb +0 p0_1_14 +0 p1_1_14 >= 0
-1 x_1_28_0 +0 x_1_28_1 +1 x_1_28_2 -1 x_1_28_3 +0 x_1_14_0_sb -1 x_1_14_1_sb -1 x_1_14_2_sb +0 x_1_14_3_sb +0 p0_1_14 -1 p1_1_14 >= -4
+1 x_1_28_0 +1 x_1_28_1 +0 x_1_28_2 -1 x_1_28_3 +1 x_1_14_0_sb +1 x_1_14_1_sb +0 x_1_14_2_sb -1 x_1_14_3_sb +0 p0_1_14 -1 p1_1_14 >= -2
+1 x_1_28_0 +0 x_1_28_1 +1 x_1_28_2 +0 x_1_28_3 +0 x_1_14_0_sb +1 x_1_14_1_sb +1 x_1_14_2_sb +1 x_1_14_3_sb +0 p0_1_14 -1 p1_1_14 >= 0
+1 x_1_28_0 +0 x_1_28_1 -1 x_1_28_2 -1 x_1_28_3 -1 x_1_14_0_sb -1 x_1_14_1_sb +0 x_1_14_2_sb -1 x_1_14_3_sb +0 p0_1_14 -1 p1_1_14 >= -5
+0 x_1_28_0 +0 x_1_28_1 +1 x_1_28_2 +1 x_1_28_3 -1 x_1_14_0_sb +0 x_1_14_1_sb -1 x_1_14_2_sb +0 x_1_14_3_sb +0 p0_1_14 -1 p1_1_14 >= -2
+0 x_1_28_0 +0 x_1_28_1 +1 x_1_28_2 +0 x_1_28_3 +1 x_1_14_0_sb -1 x_1_14_1_sb +0 x_1_14_2_sb -1 x_1_14_3_sb +0 p0_1_14 +0 p1_1_14 >= -1
+0 x_1_28_0 -1 x_1_28_1 +0 x_1_28_2 -1 x_1_28_3 +0 x_1_14_0_sb +1 x_1_14_1_sb +0 x_1_14_2_sb +1 x_1_14_3_sb +0 p0_1_14 +1 p1_1_14 >= -1
+0 x_1_28_0 +1 x_1_28_1 +0 x_1_28_2 +1 x_1_28_3 +0 x_1_14_0_sb -1 x_1_14_1_sb +0 x_1_14_2_sb -1 x_1_14_3_sb +0 p0_1_14 +1 p1_1_14 >= -1
+1 x_1_28_0 -1 x_1_28_1 +1 x_1_28_2 -1 x_1_28_3 +1 x_1_14_0_sb +0 x_1_14_1_sb +0 x_1_14_2_sb +0 x_1_14_3_sb +0 p0_1_14 +0 p1_1_14 >= -1
+1 x_1_28_0 +0 x_1_28_1 +0 x_1_28_2 +0 x_1_28_3 +1 x_1_14_0_sb -1 x_1_14_1_sb +1 x_1_14_2_sb -1 x_1_14_3_sb +0 p0_1_14 +0 p1_1_14 >= -1
+0 x_1_28_0 -1 x_1_28_1 +0 x_1_28_2 -1 x_1_28_3 +1 x_1_14_0_sb -1 x_1_14_1_sb -1 x_1_14_2_sb -1 x_1_14_3_sb +0 p0_1_14 +0 p1_1_14 >= -4
+1 x_1_28_0 +0 x_1_28_1 +0 x_1_28_2 +1 x_1_28_3 +0 x_1_14_0_sb -1 x_1_14_1_sb -1 x_1_14_2_sb +1 x_1_14_3_sb +0 p0_1_14 -1 p1_1_14 >= -2
+0 x_1_28_0 +0 x_1_28_1 -1 x_1_28_2 +1 x_1_28_3 -1 x_1_14_0_sb +1 x_1_14_1_sb +0 x_1_14_2_sb -1 x_1_14_3_sb +0 p0_1_14 -1 p1_1_14 >= -3
+0 x_1_28_0 +1 x_1_28_1 +0 x_1_28_2 +1 x_1_28_3 -1 x_1_14_0_sb -1 x_1_14_1_sb +0 x_1_14_2_sb +1 x_1_14_3_sb +0 p0_1_14 -1 p1_1_14 >= -2
-1 x_1_28_0 +1 x_1_28_1 +0 x_1_28_2 -1 x_1_28_3 +0 x_1_14_0_sb +0 x_1_14_1_sb -1 x_1_14_2_sb +1 x_1_14_3_sb +0 p0_1_14 -1 p1_1_14 >= -3
-1 x_1_28_0 +0 x_1_28_1 +0 x_1_28_2 +0 x_1_28_3 -1 x_1_14_0_sb +1 x_1_14_1_sb +0 x_1_14_2_sb -1 x_1_14_3_sb +0 p0_1_14 -1 p1_1_14 >= -3
+0 x_1_28_0 +0 x_1_28_1 -1 x_1_28_2 +0 x_1_28_3 +1 x_1_14_0_sb +1 x_1_14_1_sb +0 x_1_14_2_sb +1 x_1_14_3_sb +0 p0_1_14 +0 p1_1_14 >= 0
+0 x_1_30_0 +0 x_1_30_1 +0 x_1_30_2 +0 x_1_30_3 +0 x_1_15_0_sb +0 x_1_15_1_sb +0 x_1_15_2_sb +0 x_1_15_3_sb -1 p0_1_15 -1 p1_1_15 >= -1
+0 x_1_30_0 +0 x_1_30_1 +0 x_1_30_2 +0 x_1_30_3 +0 x_1_15_0_sb +0 x_1_15_1_sb +0 x_1_15_2_sb -1 x_1_15_3_sb +1 p0_1_15 +1 p1_1_15 >= 0
+0 x_1_30_0 +0 x_1_30_1 +0 x_1_30_2 +0 x_1_30_3 +0 x_1_15_0_sb -1 x_1_15_1_sb +0 x_1_15_2_sb +0 x_1_15_3_sb +1 p0_1_15 +1 p1_1_15 >= 0
+0 x_1_30_0 +0 x_1_30_1 +0 x_1_30_2 +0 x_1_30_3 -1 x_1_15_0_sb +0 x_1_15_1_sb +0 x_1_15_2_sb +0 x_1_15_3_sb +1 p0_1_15 +1 p1_1_15 >= 0
+0 x_1_30_0 +0 x_1_30_1 +0 x_1_30_2 +0 x_1_30_3 +1 x_1_15_0_sb +1 x_1_15_1_sb +1 x_1_15_2_sb +1 x_1_15_3_sb +0 p0_1_15 -1 p1_1_15 >= 0
+0 x_1_30_0 +0 x_1_30_1 +0 x_1_30_2 -1 x_1_30_3 +1 x_1_15_0_sb +1 x_1_15_1_sb +0 x_1_15_2_sb +1 x_1_15_3_sb +0 p0_1_15 +1 p1_1_15 >= 0
-1 x_1_30_0 +0 x_1_30_1 -1 x_1_30_2 +0 x_1_30_3 +1 x_1_15_0_sb +0 x_1_15_1_sb +0 x_1_15_2_sb +1 x_1_15_3_sb +0 p0_1_15 -1 p1_1_15 >= -2
+1 x_1_30_0 +0 x_1_30_1 +1 x_1_30_2 +0 x_1_30_3 +1 x_1_15_0_sb +0 x_1_15_1_sb +1 x_1_15_2_sb +0 x_1_15_3_sb +0 p0_1_15 -1 p1_1_15 >= 0
+0 x_1_30_0 +0 x_1_30_1 +0 x_1_30_2 +1 x_1_30_3 +0 x_1_15_0_sb +1 x_1_15_1_sb -1 x_1_15_2_sb -1 x_1_15_3_sb +0 p0_1_15 -1 p1_1_15 >= -2
-1 x_1_30_0 +0 x_1_30_1 +0 x_1_30_2 -1 x_1_30_3 -1 x_1_15_0_sb +0 x_1_15_1_sb +0 x_1_15_2_sb +1 x_1_15_3_sb +0 p0_1_15 -1 p1_1_15 >= -3
+0 x_1_30_0 +0 x_1_30_1 +0 x_1_30_2 +1 x_1_30_3 -1 x_1_15_0_sb -1 x_1_15_1_sb -1 x_1_15_2_sb +0 x_1_15_3_sb +0 p0_1_15 -1 p1_1_15 >= -3
+1 x_1_30_0 +1 x_1_30_1 +0 x_1_30_2 +1 x_1_30_3 +0 x_1_15_0_sb +0 x_1_15_1_sb +0 x_1_15_2_sb +0 x_1_15_3_sb -1 p0_1_15 +0 p1_1_15 >= 0
+0 x_1_30_0 +0 x_1_30_1 +1 x_1_30_2 +1 x_1_30_3 +0 x_1_15_0_sb -1 x_1_15_1_sb +1 x_1_15_2_sb +0 x_1_15_3_sb +0 p0_1_15 -1 p1_1_15 >= -1
+0 x_1_30_0 +1 x_1_30_1 +0 x_1_30_2 -1 x_1_30_3 -1 x_1_15_0_sb +0 x_1_15_1_sb -1 x_1_15_2_sb +0 x_1_15_3_sb +0 p0_1_15 -1 p1_1_15 >= -3
+0 x_1_30_0 +1 x_1_30_1 +1 x_1_30_2 +0 x_1_30_3 +0 x_1_15_0_sb +0 x_1_15_1_sb +1 x_1_15_2_sb -1 x_1_15_3_sb +0 p0_1_15 -1 p1_1_15 >= -1
-1 x_1_30_0 +0 x_1_30_1 -1 x_1_30_2 +0 x_1_30_3 -1 x_1_15_0_sb +0 x_1_15_1_sb +1 x_1_15_2_sb +0 x_1_15_3_sb +0 p0_1_15 -1 p1_1_15 >= -3
+0 x_1_30_0 -1 x_1_30_1 -1 x_1_30_2 +0 x_1_30_3 +0 x_1_15_0_sb +1 x_1_15_1_sb +0 x_1_15_2_sb +1 x_1_15_3_sb +0 p0_1_15 -1 p1_1_15 >= -2
+0 x_1_30_0 -1 x_1_30_1 +0 x_1_30_2 +0 x_1_30_3 +1 x_1_15_0_sb +1 x_1_15_1_sb +0 x_1_15_2_sb +1 x_1_15_3_sb +0 p0_1_15 +1 p1_1_15 >= 0
-1 x_1_30_0 -1 x_1_30_1 +0 x_1_30_2 +1 x_1_30_3 +0 x_1_15_0_sb +1 x_1_15_1_sb +0 x_1_15_2_sb +1 x_1_15_3_sb +0 p0_1_15 -1 p1_1_15 >= -2
+0 x_1_30_0 -1 x_1_30_1 +0 x_1_30_2 +0 x_1_30_3 +1 x_1_15_0_sb +0 x_1_15_1_sb +1 x_1_15_2_sb +1 x_1_15_3_sb +0 p0_1_15 -1 p1_1_15 >= -1
-1 x_1_30_0 +0 x_1_30_1 -1 x_1_30_2 +0 x_1_30_3 +1 x_1_15_0_sb +1 x_1_15_1_sb +0 x_1_15_2_sb +0 x_1_15_3_sb +0 p0_1_15 -1 p1_1_15 >= -2
+0 x_1_30_0 +1 x_1_30_1 -1 x_1_30_2 -1 x_1_30_3 +0 x_1_15_0_sb +0 x_1_15_1_sb +0 x_1_15_2_sb +1 x_1_15_3_sb +0 p0_1_15 -1 p1_1_15 >= -2
-1 x_1_30_0 -1 x_1_30_1 +0 x_1_30_2 -1 x_1_30_3 +0 x_1_15_0_sb +1 x_1_15_1_sb +0 x_1_15_2_sb -1 x_1_15_3_sb +0 p0_1_15 -1 p1_1_15 >= -4
-1 x_1_30_0 +1 x_1_30_1 +0 x_1_30_2 +1 x_1_30_3 +0 x_1_15_0_sb +1 x_1_15_1_sb +0 x_1_15_2_sb +1 x_1_15_3_sb +0 p0_1_15 +1 p1_1_15 >= 0
+0 x_1_30_0 +0 x_1_30_1 +0 x_1_30_2 +0 x_1_30_3 +1 x_1_15_0_sb -1 x_1_15_1_sb +0 x_1_15_2_sb -1 x_1_15_3_sb +0 p0_1_15 +1 p1_1_15 >= -1
+1 x_1_30_0 +0 x_1_30_1 +1 x_1_30_2 +0 x_1_30_3 +1 x_1_15_0_sb -1 x_1_15_1_sb +0 x_1_15_2_sb +0 x_1_15_3_sb +0 p0_1_15 -1 p1_1_15 >= -1
+0 x_1_30_0 +1 x_1_30_1 +0 x_1_30_2 +1 x_1_30_3 +0 x_1_15_0_sb -1 x_1_15_1_sb -1 x_1_15_2_sb +0 x_1_15_3_sb +0 p0_1_15 -1 p1_1_15 >= -2
+1 x_1_30_0 -1 x_1_30_1 +0 x_1_30_2 -1 x_1_30_3 +0 x_1_15_0_sb +0 x_1_15_1_sb +1 x_1_15_2_sb +0 x_1_15_3_sb +0 p0_1_15 +0 p1_1_15 >= -1
+1 x_1_30_0 -1 x_1_30_1 -1 x_1_30_2 +0 x_1_30_3 +0 x_1_15_0_sb +0 x_1_15_1_sb +1 x_1_15_2_sb -1 x_1_15_3_sb +0 p0_1_15 -1 p1_1_15 >= -3
+1 x_1_30_0 -1 x_1_30_1 +0 x_1_30_2 -1 x_1_30_3 +0 x_1_15_0_sb +0 x_1_15_1_sb +0 x_1_15_2_sb +0 x_1_15_3_sb +0 p0_1_15 +1 p1_1_15 >= -1
+1 x_1_30_0 +0 x_1_30_1 +0 x_1_30_2 +0 x_1_30_3 -1 x_1_15_0_sb +1 x_1_15_1_sb +0 x_1_15_2_sb -1 x_1_15_3_sb +0 p0_1_15 +1 p1_1_15 >= -1
+1 x_1_30_0 +0 x_1_30_1 +0 x_1_30_2 +0 x_1_30_3 -1 x_1_15_0_sb -1 x_1_15_1_sb +0 x_1_15_2_sb +1 x_1_15_3_sb +0 p0_1_15 +1 p1_1_15 >= -1
-1 x_1_30_0 -1 x_1_30_1 +0 x_1_30_2 +1 x_1_30_3 +1 x_1_15_0_sb +0 x_1_15_1_sb +0 x_1_15_2_sb +0 x_1_15_3_sb +0 p0_1_15 +1 p1_1_15 >= -1
-1 x_1_30_0 +1 x_1_30_1 +0 x_1_30_2 -1 x_1_30_3 +1 x_1_15_0_sb +0 x_1_15_1_sb +0 x_1_15_2_sb +0 x_1_15_3_sb +0 p0_1_15 +1 p1_1_15 >= -1
+0 x_1_30_0 -1 x_1_30_1 +0 x_1_30_2 -1 x_1_30_3 +0 x_1_15_0_sb -1 x_1_15_1_sb +0 x_1_15_2_sb -1 x_1_15_3_sb +0 p0_1_15 +1 p1_1_15 >= -3
+1 x_1_30_0 +1 x_1_30_1 +0 x_1_30_2 +1 x_1_30_3 +0 x_1_15_0_sb +0 x_1_15_1_sb -1 x_1_15_2_sb +0 x_1_15_3_sb +0 p0_1_15 +0 p1_1_15 >= 0
-1 x_1_30_0 +0 x_1_30_1 +1 x_1_30_2 -1 x_1_30_3 +0 x_1_15_0_sb -1 x_1_15_1_sb -1 x_1_15_2_sb +0 x_1_15_3_sb +0 p0_1_15 -1 p1_1_15 >= -4
+1 x_1_30_0 +1 x_1_30_1 +0 x_1_30_2 -1 x_1_30_3 +1 x_1_15_0_sb +1 x_1_15_1_sb +0 x_1_15_2_sb -1 x_1_15_3_sb +0 p0_1_15 -1 p1_1_15 >= -2
+1 x_1_30_0 +0 x_1_30_1 +1 x_1_30_2 +0 x_1_30_3 +0 x_1_15_0_sb +1 x_1_15_1_sb +1 x_1_15_2_sb +1 x_1_15_3_sb +0 p0_1_15 -1 p1_1_15 >= 0
+1 x_1_30_0 +0 x_1_30_1 -1 x_1_30_2 -1 x_1_30_3 -1 x_1_15_0_sb -1 x_1_15_1_sb +0 x_1_15_2_sb -1 x_1_15_3_sb +0 p0_1_15 -1 p1_1_15 >= -5
+0 x_1_30_0 +0 x_1_30_1 +1 x_1_30_2 +1 x_1_30_3 -1 x_1_15_0_sb +0 x_1_15_1_sb -1 x_1_15_2_sb +0 x_1_15_3_sb +0 p0_1_15 -1 p1_1_15 >= -2
+0 x_1_30_0 +0 x_1_30_1 +1 x_1_30_2 +0 x_1_30_3 +1 x_1_15_0_sb -1 x_1_15_1_sb +0 x_1_15_2_sb -1 x_1_15_3_sb +0 p0_1_15 +0 p1_1_15 >= -1
+0 x_1_30_0 -1 x_1_30_1 +0 x_1_30_2 -1 x_1_30_3 +0 x_1_15_0_sb +1 x_1_15_1_sb +0 x_1_15_2_sb +1 x_1_15_3_sb +0 p0_1_15 +1 p1_1_15 >= -1
+0 x_1_30_0 +1 x_1_30_1 +0 x_1_30_2 +1 x_1_30_3 +0 x_1_15_0_sb -1 x_1_15_1_sb +0 x_1_15_2_sb -1 x_1_15_3_sb +0 p0_1_15 +1 p1_1_15 >= -1
+1 x_1_30_0 -1 x_1_30_1 +1 x_1_30_2 -1 x_1_30_3 +1 x_1_15_0_sb +0 x_1_15_1_sb +0 x_1_15_2_sb +0 x_1_15_3_sb +0 p0_1_15 +0 p1_1_15 >= -1
+1 x_1_30_0 +0 x_1_30_1 +0 x_1_30_2 +0 x_1_30_3 +1 x_1_15_0_sb -1 x_1_15_1_sb +1 x_1_15_2_sb -1 x_1_15_3_sb +0 p0_1_15 +0 p1_1_15 >= -1
+0 x_1_30_0 -1 x_1_30_1 +0 x_1_30_2 -1 x_1_30_3 +1 x_1_15_0_sb -1 x_1_15_1_sb -1 x_1_15_2_sb -1 x_1_15_3_sb +0 p0_1_15 +0 p1_1_15 >= -4
+1 x_1_30_0 +0 x_1_30_1 +0 x_1_30_2 +1 x_1_30_3 +0 x_1_15_0_sb -1 x_1_15_1_sb -1 x_1_15_2_sb +1 x_1_15_3_sb +0 p0_1_15 -1 p1_1_15 >= -2
+0 x_1_30_0 +0 x_1_30_1 -1 x_1_30_2 +1 x_1_30_3 -1 x_1_15_0_sb +1 x_1_15_1_sb +0 x_1_15_2_sb -1 x_1_15_3_sb +0 p0_1_15 -1 p1_1_15 >= -3
+0 x_1_30_0 +1 x_1_30_1 +0 x_1_30_2 +1 x_1_30_3 -1 x_1_15_0_sb -1 x_1_15_1_sb +0 x_1_15_2_sb +1 x_1_15_3_sb +0 p0_1_15 -1 p1_1_15 >= -2
-1 x_1_30_0 +1 x_1_30_1 +0 x_1_30_2 -1 x_1_30_3 +0 x_1_15_0_sb +0 x_1_15_1_sb -1 x_1_15_2_sb +1 x_1_15_3_sb +0 p0_1_15 -1 p1_1_15 >= -3
-1 x_1_30_0 +0 x_1_30_1 +0 x_1_30_2 +0 x_1_30_3 -1 x_1_15_0_sb +1 x_1_15_1_sb +0 x_1_15_2_sb -1 x_1_15_3_sb +0 p0_1_15 -1 p1_1_15 >= -3
+0 x_1_30_0 +0 x_1_30_1 -1 x_1_30_2 +0 x_1_30_3 +1 x_1_15_0_sb +1 x_1_15_1_sb +0 x_1_15_2_sb +1 x_1_15_3_sb +0 p0_1_15 +0 p1_1_15 >= 0
-1 x_1_1_0 -1 x_1_0_0_sb -1 x_2_6_0 >= -2
+1 x_1_1_0 +1 x_1_0_0_sb -1 x_2_6_0 >= 0
+1 x_1_1_0 -1 x_1_0_0_sb +1 x_2_6_0 >= 0
-1 x_1_1_0 +1 x_1_0_0_sb +1 x_2_6_0 >= 0
-1 x_1_1_1 -1 x_1_0_1_sb -1 x_2_6_1 >= -2
+1 x_1_1_1 +1 x_1_0_1_sb -1 x_2_6_1 >= 0
+1 x_1_1_1 -1 x_1_0_1_sb +1 x_2_6_1 >= 0
-1 x_1_1_1 +1 x_1_0_1_sb +1 x_2_6_1 >= 0
-1 x_1_1_2 -1 x_1_0_2_sb -1 x_2_6_2 >= -2
+1 x_1_1_2 +1 x_1_0_2_sb -1 x_2_6_2 >= 0
+1 x_1_1_2 -1 x_1_0_2_sb +1 x_2_6_2 >= 0
-1 x_1_1_2 +1 x_1_0_2_sb +1 x_2_6_2 >= 0
-1 x_1_1_3 -1 x_1_0_3_sb -1 x_2_6_3 >= -2
+1 x_1_1_3 +1 x_1_0_3_sb -1 x_2_6_3 >= 0
+1 x_1_1_3 -1 x_1_0_3_sb +1 x_2_6_3 >= 0
-1 x_1_1_3 +1 x_1_0_3_sb +1 x_2_6_3 >= 0
-1 x_1_3_0 -1 x_1_1_0_sb -1 x_2_14_0 >= -2
+1 x_1_3_0 +1 x_1_1_0_sb -1 x_2_14_0 >= 0
+1 x_1_3_0 -1 x_1_1_0_sb +1 x_2_14_0 >= 0
-1 x_1_3_0 +1 x_1_1_0_sb +1 x_2_14_0 >= 0
-1 x_1_3_1 -1 x_1_1_1_sb -1 x_2_14_1 >= -2
+1 x_1_3_1 +1 x_1_1_1_sb -1 x_2_14_1 >= 0
+1 x_1_3_1 -1 x_1_1_1_sb +1 x_2_14_1 >= 0
-1 x_1_3_1 +1 x_1_1_1_sb +1 x_2_14_1 >= 0
-1 x_1_3_2 -1 x_1_1_2_sb -1 x_2_14_2 >= -2
+1 x_1_3_2 +1 x_1_1_2_sb -1 x_2_14_2 >= 0
+1 x_1_3_2 -1 x_1_1_2_sb +1 x_2_14_2 >= 0
-1 x_1_3_2 +1 x_1_1_2_sb +1 x_2_14_2 >= 0
-1 x_1_3_3 -1 x_1_1_3_sb -1 x_2_14_3 >= -2
+1 x_1_3_3 +1 x_1_1_3_sb -1 x_2_14_3 >= 0
+1 x_1_3_3 -1 x_1_1_3_sb +1 x_2_14_3 >= 0
-1 x_1_3_3 +1 x_1_1_3_sb +1 x_2_14_3 >= 0
-1 x_1_5_0 -1 x_1_2_0_sb -1 x_2_12_0 >= -2
+1 x_1_5_0 +1 x_1_2_0_sb -1 x_2_12_0 >= 0
+1 x_1_5_0 -1 x_1_2_0_sb +1 x_2_12_0 >= 0
-1 x_1_5_0 +1 x_1_2_0_sb +1 x_2_12_0 >= 0
-1 x_1_5_1 -1 x_1_2_1_sb -1 x_2_12_1 >= -2
+1 x_1_5_1 +1 x_1_2_1_sb -1 x_2_12_1 >= 0
+1 x_1_5_1 -1 x_1_2_1_sb +1 x_2_12_1 >= 0
-1 x_1_5_1 +1 x_1_2_1_sb +1 x_2_12_1 >= 0
-1 x_1_5_2 -1 x_1_2_2_sb -1 x_2_12_2 >= -2
+1 x_1_5_2 +1 x_1_2_2_sb -1 x_2_12_2 >= 0
+1 x_1_5_2 -1 x_1_2_2_sb +1 x_2_12_2 >= 0
-1 x_1_5_2 +1 x_1_2_2_sb +1 x_2_12_2 >= 0
-1 x_1_5_3 -1 x_1_2_3_sb -1 x_2_12_3 >= -2
+1 x_1_5_3 +1 x_1_2_3_sb -1 x_2_12_3 >= 0
+1 x_1_5_3 -1 x_1_2_3_sb +1 x_2_12_3 >= 0
-1 x_1_5_3 +1 x_1_2_3_sb +1 x_2_12_3 >= 0
-1 x_1_7_0 -1 x_1_3_0_sb -1 x_2_8_0 >= -2
+1 x_1_7_0 +1 x_1_3_0_sb -1 x_2_8_0 >= 0
+1 x_1_7_0 -1 x_1_3_0_sb +1 x_2_8_0 >= 0
-1 x_1_7_0 +1 x_1_3_0_sb +1 x_2_8_0 >= 0
-1 x_1_7_1 -1 x_1_3_1_sb -1 x_2_8_1 >= -2
+1 x_1_7_1 +1 x_1_3_1_sb -1 x_2_8_1 >= 0
+1 x_1_7_1 -1 x_1_3_1_sb +1 x_2_8_1 >= 0
-1 x_1_7_1 +1 x_1_3_1_sb +1 x_2_8_1 >= 0
-1 x_1_7_2 -1 x_1_3_2_sb -1 x_2_8_2 >= -2
+1 x_1_7_2 +1 x_1_3_2_sb -1 x_2_8_2 >= 0
+1 x_1_7_2 -1 x_1_3_2_sb +1 x_2_8_2 >= 0
-1 x_1_7_2 +1 x_1_3_2_sb +1 x_2_8_2 >= 0
-1 x_1_7_3 -1 x_1_3_3_sb -1 x_2_8_3 >= -2
+1 x_1_7_3 +1 x_1_3_3_sb -1 x_2_8_3 >= 0
+1 x_1_7_3 -1 x_1_3_3_sb +1 x_2_8_3 >= 0
-1 x_1_7_3 +1 x_1_3_3_sb +1 x_2_8_3 >= 0
-1 x_1_9_0 -1 x_1_4_0_sb -1 x_2_2_0 >= -2
+1 x_1_9_0 +1 x_1_4_0_sb -1 x_2_2_0 >= 0
+1 x_1_9_0 -1 x_1_4_0_sb +1 x_2_2_0 >= 0
-1 x_1_9_0 +1 x_1_4_0_sb +1 x_2_2_0 >= 0
-1 x_1_9_1 -1 x_1_4_1_sb -1 x_2_2_1 >= -2
+1 x_1_9_1 +1 x_1_4_1_sb -1 x_2_2_1 >= 0
+1 x_1_9_1 -1 x_1_4_1_sb +1 x_2_2_1 >= 0
-1 x_1_9_1 +1 x_1_4_1_sb +1 x_2_2_1 >= 0
-1 x_1_9_2 -1 x_1_4_2_sb -1 x_2_2_2 >= -2
+1 x_1_9_2 +1 x_1_4_2_sb -1 x_2_2_2 >= 0
+1 x_1_9_2 -1 x_1_4_2_sb +1 x_2_2_2 >= 0
-1 x_1_9_2 +1 x_1_4_2_sb +1 x_2_2_2 >= 0
-1 x_1_9_3 -1 x_1_4_3_sb -1 x_2_2_3 >= -2
+1 x_1_9_3 +1 x_1_4_3_sb -1 x_2_2_3 >= 0
+1 x_1_9_3 -1 x_1_4_3_sb +1 x_2_2_3 >= 0
-1 x_1_9_3 +1 x_1_4_3_sb +1 x_2_2_3 >= 0
-1 x_1_11_0 -1 x_1_5_0_sb -1 x_2_0_0 >= -2
+1 x_1_11_0 +1 x_1_5_0_sb -1 x_2_0_0 >= 0
+1 x_1_11_0 -1 x_1_5_0_sb +1 x_2_0_0 >= 0
-1 x_1_11_0 +1 x_1_5_0_sb +1 x_2_0_0 >= 0
-1 x_1_11_1 -1 x_1_5_1_sb -1 x_2_0_1 >= -2
+1 x_1_11_1 +1 x_1_5_1_sb -1 x_2_0_1 >= 0
+1 x_1_11_1 -1 x_1_5_1_sb +1 x_2_0_1 >= 0
-1 x_1_11_1 +1 x_1_5_1_sb +1 x_2_0_1 >= 0
-1 x_1_11_2 -1 x_1_5_2_sb -1 x_2_0_2 >= -2
+1 x_1_11_2 +1 x_1_5_2_sb -1 x_2_0_2 >= 0
+1 x_1_11_2 -1 x_1_5_2_sb +1 x_2_0_2 >= 0
-1 x_1_11_2 +1 x_1_5_2_sb +1 x_2_0_2 >= 0
-1 x_1_11_3 -1 x_1_5_3_sb -1 x_2_0_3 >= -2
+1 x_1_11_3 +1 x_1_5_3_sb -1 x_2_0_3 >= 0
+1 x_1_11_3 -1 x_1_5_3_sb +1 x_2_0_3 >= 0
-1 x_1_11_3 +1 x_1_5_3_sb +1 x_2_0_3 >= 0
-1 x_1_13_0 -1 x_1_6_0_sb -1 x_2_4_0 >= -2
+1 x_1_13_0 +1 x_1_6_0_sb -1 x_2_4_0 >= 0
+1 x_1_13_0 -1 x_1_6_0_sb +1 x_2_4_0 >= 0
-1 x_1_13_0 +1 x_1_6_0_sb +1 x_2_4_0 >= 0
-1 x_1_13_1 -1 x_1_6_1_sb -1 x_2_4_1 >= -2
+1 x_1_13_1 +1 x_1_6_1_sb -1 x_2_4_1 >= 0
+1 x_1_13_1 -1 x_1_6_1_sb +1 x_2_4_1 >= 0
-1 x_1_13_1 +1 x_1_6_1_sb +1 x_2_4_1 >= 0
-1 x_1_13_2 -1 x_1_6_2_sb -1 x_2_4_2 >= -2
+1 x_1_13_2 +1 x_1_6_2_sb -1 x_2_4_2 >= 0
+1 x_1_13_2 -1 x_1_6_2_sb +1 x_2_4_2 >= 0
-1 x_1_13_2 +1 x_1_6_2_sb +1 x_2_4_2 >= 0
-1 x_1_13_3 -1 x_1_6_3_sb -1 x_2_4_3 >= -2
+1 x_1_13_3 +1 x_1_6_3_sb -1 x_2_4_3 >= 0
+1 x_1_13_3 -1 x_1_6_3_sb +1 x_2_4_3 >= 0
-1 x_1_13_3 +1 x_1_6_3_sb +1 x_2_4_3 >= 0
-1 x_1_15_0 -1 x_1_7_0_sb -1 x_2_10_0 >= -2
+1 x_1_15_0 +1 x_1_7_0_sb -1 x_2_10_0 >= 0
+1 x_1_15_0 -1 x_1_7_0_sb +1 x_2_10_0 >= 0
-1 x_1_15_0 +1 x_1_7_0_sb +1 x_2_10_0 >= 0
-1 x_1_15_1 -1 x_1_7_1_sb -1 x_2_10_1 >= -2
+1 x_1_15_1 +1 x_1_7_1_sb -1 x_2_10_1 >= 0
+1 x_1_15_1 -1 x_1_7_1_sb +1 x_2_10_1 >= 0
-1 x_1_15_1 +1 x_1_7_1_sb +1 x_2_10_1 >= 0
-1 x_1_15_2 -1 x_1_7_2_sb -1 x_2_10_2 >= -2
+1 x_1_15_2 +1 x_1_7_2_sb -1 x_2_10_2 >= 0
+1 x_1_15_2 -1 x_1_7_2_sb +1 x_2_10_2 >= 0
-1 x_1_15_2 +1 x_1_7_2_sb +1 x_2_10_2 >= 0
-1 x_1_15_3 -1 x_1_7_3_sb -1 x_2_10_3 >= -2
+1 x_1_15_3 +1 x_1_7_3_sb -1 x_2_10_3 >= 0
+1 x_1_15_3 -1 x_1_7_3_sb +1 x_2_10_3 >= 0
-1 x_1_15_3 +1 x_1_7_3_sb +1 x_2_10_3 >= 0
-1 x_1_17_0 -1 x_1_8_0_sb -1 x_2_22_0 >= -2
+1 x_1_17_0 +1 x_1_8_0_sb -1 x_2_22_0 >= 0
+1 x_1_17_0 -1 x_1_8_0_sb +1 x_2_22_0 >= 0
-1 x_1_17_0 +1 x_1_8_0_sb +1 x_2_22_0 >= 0
-1 x_1_17_1 -1 x_1_8_1_sb -1 x_2_22_1 >= -2
+1 x_1_17_1 +1 x_1_8_1_sb -1 x_2_22_1 >= 0
+1 x_1_17_1 -1 x_1_8_1_sb +1 x_2_22_1 >= 0
-1 x_1_17_1 +1 x_1_8_1_sb +1 x_2_22_1 >= 0
-1 x_1_17_2 -1 x_1_8_2_sb -1 x_2_22_2 >= -2
+1 x_1_17_2 +1 x_1_8_2_sb -1 x_2_22_2 >= 0
+1 x_1_17_2 -1 x_1_8_2_sb +1 x_2_22_2 >= 0
-1 x_1_17_2 +1 x_1_8_2_sb +1 x_2_22_2 >= 0
-1 x_1_17_3 -1 x_1_8_3_sb -1 x_2_22_3 >= -2
+1 x_1_17_3 +1 x_1_8_3_sb -1 x_2_22_3 >= 0
+1 x_1_17_3 -1 x_1_8_3_sb +1 x_2_22_3 >= 0
-1 x_1_17_3 +1 x_1_8_3_sb +1 x_2_22_3 >= 0
-1 x_1_19_0 -1 x_1_9_0_sb -1 x_2_30_0 >= -2
+1 x_1_19_0 +1 x_1_9_0_sb -1 x_2_30_0 >= 0
+1 x_1_19_0 -1 x_1_9_0_sb +1 x_2_30_0 >= 0
-1 x_1_19_0 +1 x_1_9_0_sb +1 x_2_30_0 >= 0
-1 x_1_19_1 -1 x_1_9_1_sb -1 x_2_30_1 >= -2
+1 x_1_19_1 +1 x_1_9_1_sb -1 x_2_30_1 >= 0
+1 x_1_19_1 -1 x_1_9_1_sb +1 x_2_30_1 >= 0
-1 x_1_19_1 +1 x_1_9_1_sb +1 x_2_30_1 >= 0
-1 x_1_19_2 -1 x_1_9_2_sb -1 x_2_30_2 >= -2
+1 x_1_19_2 +1 x_1_9_2_sb -1 x_2_30_2 >= 0
+1 x_1_19_2 -1 x_1_9_2_sb +1 x_2_30_2 >= 0
-1 x_1_19_2 +1 x_1_9_2_sb +1 x_2_30_2 >= 0
-1 x_1_19_3 -1 x_1_9_3_sb -1 x_2_30_3 >= -2
+1 x_1_19_3 +1 x_1_9_3_sb -1 x_2_30_3 >= 0
+1 x_1_19_3 -1 x_1_9_3_sb +1 x_2_30_3 >= 0
-1 x_1_19_3 +1 x_1_9_3_sb +1 x_2_30_3 >= 0
-1 x_1_21_0 -1 x_1_10_0_sb -1 x_2_28_0 >= -2
+1 x_1_21_0 +1 x_1_10_0_sb -1 x_2_28_0 >= 0
+1 x_1_21_0 -1 x_1_10_0_sb +1 x_2_28_0 >= 0
-1 x_1_21_0 +1 x_1_10_0_sb +1 x_2_28_0 >= 0
-1 x_1_21_1 -1 x_1_10_1_sb -1 x_2_28_1 >= -2
+1 x_1_21_1 +1 x_1_10_1_sb -1 x_2_28_1 >= 0
+1 x_1_21_1 -1 x_1_10_1_sb +1 x_2_28_1 >= 0
-1 x_1_21_1 +1 x_1_10_1_sb +1 x_2_28_1 >= 0
-1 x_1_21_2 -1 x_1_10_2_sb -1 x_2_28_2 >= -2
+1 x_1_21_2 +1 x_1_10_2_sb -1 x_2_28_2 >= 0
+1 x_1_21_2 -1 x_1_10_2_sb +1 x_2_28_2 >= 0
-1 x_1_21_2 +1 x_1_10_2_sb +1 x_2_28_2 >= 0
-1 x_1_21_3 -1 x_1_10_3_sb -1 x_2_28_3 >= -2
+1 x_1_21_3 +1 x_1_10_3_sb -1 x_2_28_3 >= 0
+1 x_1_21_3 -1 x_1_10_3_sb +1 x_2_28_3 >= 0
-1 x_1_21_3 +1 x_1_10_3_sb +1 x_2_28_3 >= 0
-1 x_1_23_0 -1 x_1_11_0_sb -1 x_2_24_0 >= -2
+1 x_1_23_0 +1 x_1_11_0_sb -1 x_2_24_0 >= 0
+1 x_1_23_0 -1 x_1_11_0_sb +1 x_2_24_0 >= 0
-1 x_1_23_0 +1 x_1_11_0_sb +1 x_2_24_0 >= 0
-1 x_1_23_1 -1 x_1_11_1_sb -1 x_2_24_1 >= -2
+1 x_1_23_1 +1 x_1_11_1_sb -1 x_2_24_1 >= 0
+1 x_1_23_1 -1 x_1_11_1_sb +1 x_2_24_1 >= 0
-1 x_1_23_1 +1 x_1_11_1_sb +1 x_2_24_1 >= 0
-1 x_1_23_2 -1 x_1_11_2_sb -1 x_2_24_2 >= -2
+1 x_1_23_2 +1 x_1_11_2_sb -1 x_2_24_2 >= 0
+1 x_1_23_2 -1 x_1_11_2_sb +1 x_2_24_2 >= 0
-1 x_1_23_2 +1 x_1_11_2_sb +1 x_2_24_2 >= 0
-1 x_1_23_3 -1 x_1_11_3_sb -1 x_2_24_3 >= -2
+1 x_1_23_3 +1 x_1_11_3_sb -1 x_2_24_3 >= 0
+1 x_1_23_3 -1 x_1_11_3_sb +1 x_2_24_3 >= 0
-1 x_1_23_3 +1 x_1_11_3_sb +1 x_2_24_3 >= 0
-1 x_1_25_0 -1 x_1_12_0_sb -1 x_2_18_0 >= -2
+1 x_1_25_0 +1 x_1_12_0_sb -1 x_2_18_0 >= 0
+1 x_1_25_0 -1 x_1_12_0_sb +1 x_2_18_0 >= 0
-1 x_1_25_0 +1 x_1_12_0_sb +1 x_2_18_0 >= 0
-1 x_1_25_1 -1 x_1_12_1_sb -1 x_2_18_1 >= -2
+1 x_1_25_1 +1 x_1_12_1_sb -1 x_2_18_1 >= 0
+1 x_1_25_1 -1 x_1_12_1_sb +1 x_2_18_1 >= 0
-1 x_1_25_1 +1 x_1_12_1_sb +1 x_2_18_1 >= 0
-1 x_1_25_2 -1 x_1_12_2_sb -1 x_2_18_2 >= -2
+1 x_1_25_2 +1 x_1_12_2_sb -1 x_2_18_2 >= 0
+1 x_1_25_2 -1 x_1_12_2_sb +1 x_2_18_2 >= 0
-1 x_1_25_2 +1 x_1_12_2_sb +1 x_2_18_2 >= 0
-1 x_1_25_3 -1 x_1_12_3_sb -1 x_2_18_3 >= -2
+1 x_1_25_3 +1 x_1_12_3_sb -1 x_2_18_3 >= 0
+1 x_1_25_3 -1 x_1_12_3_sb +1 x_2_18_3 >= 0
-1 x_1_25_3 +1 x_1_12_3_sb +1 x_2_18_3 >= 0
-1 x_1_27_0 -1 x_1_13_0_sb -1 x_2_16_0 >= -2
+1 x_1_27_0 +1 x_1_13_0_sb -1 x_2_16_0 >= 0
+1 x_1_27_0 -1 x_1_13_0_sb +1 x_2_16_0 >= 0
-1 x_1_27_0 +1 x_1_13_0_sb +1 x_2_16_0 >= 0
-1 x_1_27_1 -1 x_1_13_1_sb -1 x_2_16_1 >= -2
+1 x_1_27_1 +1 x_1_13_1_sb -1 x_2_16_1 >= 0
+1 x_1_27_1 -1 x_1_13_1_sb +1 x_2_16_1 >= 0
-1 x_1_27_1 +1 x_1_13_1_sb +1 x_2_16_1 >= 0
-1 x_1_27_2 -1 x_1_13_2_sb -1 x_2_16_2 >= -2
+1 x_1_27_2 +1 x_1_13_2_sb -1 x_2_16_2 >= 0
+1 x_1_27_2 -1 x_1_13_2_sb +1 x_2_16_2 >= 0
-1 x_1_27_2 +1 x_1_13_2_sb +1 x_2_16_2 >= 0
-1 x_1_27_3 -1 x_1_13_3_sb -1 x_2_16_3 >= -2
+1 x_1_27_3 +1 x_1_13_3_sb -1 x_2_16_3 >= 0
+1 x_1_27_3 -1 x_1_13_3_sb +1 x_2_16_3 >= 0
-1 x_1_27_3 +1 x_1_13_3_sb +1 x_2_16_3 >= 0
-1 x_1_29_0 -1 x_1_14_0_sb -1 x_2_20_0 >= -2
+1 x_1_29_0 +1 x_1_14_0_sb -1 x_2_20_0 >= 0
+1 x_1_29_0 -1 x_1_14_0_sb +1 x_2_20_0 >= 0
-1 x_1_29_0 +1 x_1_14_0_sb +1 x_2_20_0 >= 0
-1 x_1_29_1 -1 x_1_14_1_sb -1 x_2_20_1 >= -2
+1 x_1_29_1 +1 x_1_14_1_sb -1 x_2_20_1 >= 0
+1 x_1_29_1 -1 x_1_14_1_sb +1 x_2_20_1 >= 0
-1 x_1_29_1 +1 x_1_14_1_sb +1 x_2_20_1 >= 0
-1 x_1_29_2 -1 x_1_14_2_sb -1 x_2_20_2 >= -2
+1 x_1_29_2 +1 x_1_14_2_sb -1 x_2_20_2 >= 0
+1 x_1_29_2 -1 x_1_14_2_sb +1 x_2_20_2 >= 0
-1 x_1_29_2 +1 x_1_14_2_sb +1 x_2_20_2 >= 0
-1 x_1_29_3 -1 x_1_14_3_sb -1 x_2_20_3 >= -2
+1 x_1_29_3 +1 x_1_14_3_sb -1 x_2_20_3 >= 0
+1 x_1_29_3 -1 x_1_14_3_sb +1 x_2_20_3 >= 0
-1 x_1_29_3 +1 x_1_14_3_sb +1 x_2_20_3 >= 0
-1 x_1_31_0 -1 x_1_15_0_sb -1 x_2_26_0 >= -2
+1 x_1_31_0 +1 x_1_15_0_sb -1 x_2_26_0 >= 0
+1 x_1_31_0 -1 x_1_15_0_sb +1 x_2_26_0 >= 0
-1 x_1_31_0 +1 x_1_15_0_sb +1 x_2_26_0 >= 0
-1 x_1_31_1 -1 x_1_15_1_sb -1 x_2_26_1 >= -2
+1 x_1_31_1 +1 x_1_15_1_sb -1 x_2_26_1 >= 0
+1 x_1_31_1 -1 x_1_15_1_sb +1 x_2_26_1 >= 0
-1 x_1_31_1 +1 x_1_15_1_sb +1 x_2_26_1 >= 0
-1 x_1_31_2 -1 x_1_15_2_sb -1 x_2_26_2 >= -2
+1 x_1_31_2 +1 x_1_15_2_sb -1 x_2_26_2 >= 0
+1 x_1_31_2 -1 x_1_15_2_sb +1 x_2_26_2 >= 0
-1 x_1_31_2 +1 x_1_15_2_sb +1 x_2_26_2 >= 0
-1 x_1_31_3 -1 x_1_15_3_sb -1 x_2_26_3 >= -2
+1 x_1_31_3 +1 x_1_15_3_sb -1 x_2_26_3 >= 0
+1 x_1_31_3 -1 x_1_15_3_sb +1 x_2_26_3 >= 0
-1 x_1_31_3 +1 x_1_15_3_sb +1 x_2_26_3 >= 0
x_2_31_0 - x_1_0_0 = 0
x_2_31_1 - x_1_0_1 = 0
x_2_31_2 - x_1_0_2 = 0
x_2_31_3 - x_1_0_3 = 0
x_2_29_0 - x_1_2_0 = 0
x_2_29_1 - x_1_2_1 = 0
x_2_29_2 - x_1_2_2 = 0
x_2_29_3 - x_1_2_3 = 0
x_2_1_0 - x_1_4_0 = 0
x_2_1_1 - x_1_4_1 = 0
x_2_1_2 - x_1_4_2 = 0
x_2_1_3 - x_1_4_3 = 0
x_2_21_0 - x_1_6_0 = 0
x_2_21_1 - x_1_6_1 = 0
x_2_21_2 - x_1_6_2 = 0
x_2_21_3 - x_1_6_3 = 0
x_2_27_0 - x_1_8_0 = 0
x_2_27_1 - x_1_8_1 = 0
x_2_27_2 - x_1_8_2 = 0
x_2_27_3 - x_1_8_3 = 0
x_2_3_0 - x_1_10_0 = 0
x_2_3_1 - x_1_10_1 = 0
x_2_3_2 - x_1_10_2 = 0
x_2_3_3 - x_1_10_3 = 0
x_2_25_0 - x_1_12_0 = 0
x_2_25_1 - x_1_12_1 = 0
x_2_25_2 - x_1_12_2 = 0
x_2_25_3 - x_1_12_3 = 0
x_2_23_0 - x_1_14_0 = 0
x_2_23_1 - x_1_14_1 = 0
x_2_23_2 - x_1_14_2 = 0
x_2_23_3 - x_1_14_3 = 0
x_2_15_0 - x_1_16_0 = 0
x_2_15_1 - x_1_16_1 = 0
x_2_15_2 - x_1_16_2 = 0
x_2_15_3 - x_1_16_3 = 0
x_2_13_0 - x_1_18_0 = 0
x_2_13_1 - x_1_18_1 = 0
x_2_13_2 - x_1_18_2 = 0
x_2_13_3 - x_1_18_3 = 0
x_2_17_0 - x_1_20_0 = 0
x_2_17_1 - x_1_20_1 = 0
x_2_17_2 - x_1_20_2 = 0
x_2_17_3 - x_1_20_3 = 0
x_2_5_0 - x_1_22_0 = 0
x_2_5_1 - x_1_22_1 = 0
x_2_5_2 - x_1_22_2 = 0
x_2_5_3 - x_1_22_3 = 0
x_2_11_0 - x_1_24_0 = 0
x_2_11_1 - x_1_24_1 = 0
x_2_11_2 - x_1_24_2 = 0
x_2_11_3 - x_1_24_3 = 0
x_2_19_0 - x_1_26_0 = 0
x_2_19_1 - x_1_26_1 = 0
x_2_19_2 - x_1_26_2 = 0
x_2_19_3 - x_1_26_3 = 0
x_2_9_0 - x_1_28_0 = 0
x_2_9_1 - x_1_28_1 = 0
x_2_9_2 - x_1_28_2 = 0
x_2_9_3 - x_1_28_3 = 0
x_2_7_0 - x_1_30_0 = 0
x_2_7_1 - x_1_30_1 = 0
x_2_7_2 - x_1_30_2 = 0
x_2_7_3 - x_1_30_3 = 0
+0 x_2_0_0 +0 x_2_0_1 +0 x_2_0_2 +0 x_2_0_3 +0 x_2_0_0_sb +0 x_2_0_1_sb +0 x_2_0_2_sb +0 x_2_0_3_sb -1 p0_2_0 -1 p1_2_0 >= -1
+0 x_2_0_0 +0 x_2_0_1 +0 x_2_0_2 +0 x_2_0_3 +0 x_2_0_0_sb +0 x_2_0_1_sb +0 x_2_0_2_sb -1 x_2_0_3_sb +1 p0_2_0 +1 p1_2_0 >= 0
+0 x_2_0_0 +0 x_2_0_1 +0 x_2_0_2 +0 x_2_0_3 +0 x_2_0_0_sb -1 x_2_0_1_sb +0 x_2_0_2_sb +0 x_2_0_3_sb +1 p0_2_0 +1 p1_2_0 >= 0
+0 x_2_0_0 +0 x_2_0_1 +0 x_2_0_2 +0 x_2_0_3 -1 x_2_0_0_sb +0 x_2_0_1_sb +0 x_2_0_2_sb +0 x_2_0_3_sb +1 p0_2_0 +1 p1_2_0 >= 0
+0 x_2_0_0 +0 x_2_0_1 +0 x_2_0_2 +0 x_2_0_3 +1 x_2_0_0_sb +1 x_2_0_1_sb +1 x_2_0_2_sb +1 x_2_0_3_sb +0 p0_2_0 -1 p1_2_0 >= 0
+0 x_2_0_0 +0 x_2_0_1 +0 x_2_0_2 -1 x_2_0_3 +1 x_2_0_0_sb +1 x_2_0_1_sb +0 x_2_0_2_sb +1 x_2_0_3_sb +0 p0_2_0 +1 p1_2_0 >= 0
-1 x_2_0_0 +0 x_2_0_1 -1 x_2_0_2 +0 x_2_0_3 +1 x_2_0_0_sb +0 x_2_0_1_sb +0 x_2_0_2_sb +1 x_2_0_3_sb +0 p0_2_0 -1 p1_2_0 >= -2
+1 x_2_0_0 +0 x_2_0_1 +1 x_2_0_2 +0 x_2_0_3 +1 x_2_0_0_sb +0 x_2_0_1_sb +1 x_2_0_2_sb +0 x_2_0_3_sb +0 p0_2_0 -1 p1_2_0 >= 0
+0 x_2_0_0 +0 x_2_0_1 +0 x_2_0_2 +1 x_2_0_3 +0 x_2_0_0_sb +1 x_2_0_1_sb -1 x_2_0_2_sb -1 x_2_0_3_sb +0 p0_2_0 -1 p1_2_0 >= -2
-1 x_2_0_0 +0 x_2_0_1 +0 x_2_0_2 -1 x_2_0_3 -1 x_2_0_0_sb +0 x_2_0_1_sb +0 x_2_0_2_sb +1 x_2_0_3_sb +0 p0_2_0 -1 p1_2_0 >= -3
+0 x_2_0_0 +0 x_2_0_1 +0 x_2_0_2 +1 x_2_0_3 -1 x_2_0_0_sb -1 x_2_0_1_sb -1 x_2_0_2_sb +0 x_2_0_3_sb +0 p0_2_0 -1 p1_2_0 >= -3
+1 x_2_0_0 +1 x_2_0_1 +0 x_2_0_2 +1 x_2_0_3 +0 x_2_0_0_sb +0 x_2_0_1_sb +0 x_2_0_2_sb +0 x_2_0_3_sb -1 p0_2_0 +0 p1_2_0 >= 0
+0 x_2_0_0 +0 x_2_0_1 +1 x_2_0_2 +1 x_2_0_3 +0 x_2_0_0_sb -1 x_2_0_1_sb +1 x_2_0_2_sb +0 x_2_0_3_sb +0 p0_2_0 -1 p1_2_0 >= -1
+0 x_2_0_0 +1 x_2_0_1 +0 x_2_0_2 -1 x_2_0_3 -1 x_2_0_0_sb +0 x_2_0_1_sb -1 x_2_0_2_sb +0 x_2_0_3_sb +0 p0_2_0 -1 p1_2_0 >= -3
+0 x_2_0_0 +1 x_2_0_1 +1 x_2_0_2 +0 x_2_0_3 +0 x_2_0_0_sb +0 x_2_0_1_sb +1 x_2_0_2_sb -1 x_2_0_3_sb +0 p0_2_0 -1 p1_2_0 >= -1
-1 x_2_0_0 +0 x_2_0_1 -1 x_2_0_2 +0 x_2_0_3 -1 x_2_0_0_sb +0 x_2_0_1_sb +1 x_2_0_2_sb +0 x_2_0_3_sb +0 p0_2_0 -1 p1_2_0 >= -3
+0 x_2_0_0 -1 x_2_0_1 -1 x_2_0_2 +0 x_2_0_3 +0 x_2_0_0_sb +1 x_2_0_1_sb +0 x_2_0_2_sb +1 x_2_0_3_sb +0 p0_2_0 -1 p1_2_0 >= -2
+0 x_2_0_0 -1 x_2_0_1 +0 x_2_0_2 +0 x_2_0_3 +1 x_2_0_0_sb +1 x_2_0_1_sb +0 x_2_0_2_sb +1 x_2_0_3_sb +0 p0_2_0 +1 p1_2_0 >= 0
-1 x_2_0_0 -1 x_2_0_1 +0 x_2_0_2 +1 x_2_0_3 +0 x_2_0_0_sb +1 x_2_0_1_sb +0 x_2_0_2_sb +1 x_2_0_3_sb +0 p0_2_0 -1 p1_2_0 >= -2
+0 x_2_0_0 -1 x_2_0_1 +0 x_2_0_2 +0 x_2_0_3 +1 x_2_0_0_sb +0 x_2_0_1_sb +1 x_2_0_2_sb +1 x_2_0_3_sb +0 p0_2_0 -1 p1_2_0 >= -1
-1 x_2_0_0 +0 x_2_0_1 -1 x_2_0_2 +0 x_2_0_3 +1 x_2_0_0_sb +1 x_2_0_1_sb +0 x_2_0_2_sb +0 x_2_0_3_sb +0 p0_2_0 -1 p1_2_0 >= -2
+0 x_2_0_0 +1 x_2_0_1 -1 x_2_0_2 -1 x_2_0_3 +0 x_2_0_0_sb +0 x_2_0_1_sb +0 x_2_0_2_sb +1 x_2_0_3_sb +0 p0_2_0 -1 p1_2_0 >= -2
-1 x_2_0_0 -1 x_2_0_1 +0 x_2_0_2 -1 x_2_0_3 +0 x_2_0_0_sb +1 x_2_0_1_sb +0 x_2_0_2_sb -1 x_2_0_3_sb +0 p0_2_0 -1 p1_2_0 >= -4
-1 x_2_0_0 +1 x_2_0_1 +0 x_2_0_2 +1 x_2_0_3 +0 x_2_0_0_sb +1 x_2_0_1_sb +0 x_2_0_2_sb +1 x_2_0_3_sb +0 p0_2_0 +1 p1_2_0 >= 0
+0 x_2_0_0 +0 x_2_0_1 +0 x_2_0_2 +0 x_2_0_3 +1 x_2_0_0_sb -1 x_2_0_1_sb +0 x_2_0_2_sb -1 x_2_0_3_sb +0 p0_2_0 +1 p1_2_0 >= -1
+1 x_2_0_0 +0 x_2_0_1 +1 x_2_0_2 +0 x_2_0_3 +1 x_2_0_0_sb -1 x_2_0_1_sb +0 x_2_0_2_sb +0 x_2_0_3_sb +0 p0_2_0 -1 p1_2_0 >= -1
+0 x_2_0_0 +1 x_2_0_1 +0 x_2_0_2 +1 x_2_0_3 +0 x_2_0_0_sb -1 x_2_0_1_sb -1 x_2_0_2_sb +0 x_2_0_3_sb +0 p0_2_0 -1 p1_2_0 >= -2
+1 x_2_0_0 -1 x_2_0_1 +0 x_2_0_2 -1 x_2_0_3 +0 x_2_0_0_sb +0 x_2_0_1_sb +1 x_2_0_2_sb +0 x_2_0_3_sb +0 p0_2_0 +0 p1_2_0 >= -1
+1 x_2_0_0 -1 x_2_0_1 -1 x_2_0_2 +0 x_2_0_3 +0 x_2_0_0_sb +0 x_2_0_1_sb +1 x_2_0_2_sb -1 x_2_0_3_sb +0 p0_2_0 -1 p1_2_0 >= -3
+1 x_2_0_0 -1 x_2_0_1 +0 x_2_0_2 -1 x_2_0_3 +0 x_2_0_0_sb +0 x_2_0_1_sb +0 x_2_0_2_sb +0 x_2_0_3_sb +0 p0_2_0 +1 p1_2_0 >= -1
+1 x_2_0_0 +0 x_2_0_1 +0 x_2_0_2 +0 x_2_0_3 -1 x_2_0_0_sb +1 x_2_0_1_sb +0 x_2_0_2_sb -1 x_2_0_3_sb +0 p0_2_0 +1 p1_2_0 >= -1
+1 x_2_0_0 +0 x_2_0_1 +0 x_2_0_2 +0 x_2_0_3 -1 x_2_0_0_sb -1 x_2_0_1_sb +0 x_2_0_2_sb +1 x_2_0_3_sb +0 p0_2_0 +1 p1_2_0 >= -1
-1 x_2_0_0 -1 x_2_0_1 +0 x_2_0_2 +1 x_2_0_3 +1 x_2_0_0_sb +0 x_2_0_1_sb +0 x_2_0_2_sb +0 x_2_0_3_sb +0 p0_2_0 +1 p1_2_0 >= -1
-1 x_2_0_0 +1 x_2_0_1 +0 x_2_0_2 -1 x_2_0_3 +1 x_2_0_0_sb +0 x_2_0_1_sb +0 x_2_0_2_sb +0 x_2_0_3_sb +0 p0_2_0 +1 p1_2_0 >= -1
+0 x_2_0_0 -1 x_2_0_1 +0 x_2_0_2 -1 x_2_0_3 +0 x_2_0_0_sb -1 x_2_0_1_sb +0 x_2_0_2_sb -1 x_2_0_3_sb +0 p0_2_0 +1 p1_2_0 >= -3
+1 x_2_0_0 +1 x_2_0_1 +0 x_2_0_2 +1 x_2_0_3 +0 x_2_0_0_sb +0 x_2_0_1_sb -1 x_2_0_2_sb +0 x_2_0_3_sb +0 p0_2_0 +0 p1_2_0 >= 0
-1 x_2_0_0 +0 x_2_0_1 +1 x_2_0_2 -1 x_2_0_3 +0 x_2_0_0_sb -1 x_2_0_1_sb -1 x_2_0_2_sb +0 x_2_0_3_sb +0 p0_2_0 -1 p1_2_0 >= -4
+1 x_2_0_0 +1 x_2_0_1 +0 x_2_0_2 -1 x_2_0_3 +1 x_2_0_0_sb +1 x_2_0_1_sb +0 x_2_0_2_sb -1 x_2_0_3_sb +0 p0_2_0 -1 p1_2_0 >= -2
+1 x_2_0_0 +0 x_2_0_1 +1 x_2_0_2 +0 x_2_0_3 +0 x_2_0_0_sb +1 x_2_0_1_sb +1 x_2_0_2_sb +1 x_2_0_3_sb +0 p0_2_0 -1 p1_2_0 >= 0
+1 x_2_0_0 +0 x_2_0_1 -1 x_2_0_2 -1 x_2_0_3 -1 x_2_0_0_sb -1 x_2_0_1_sb +0 x_2_0_2_sb -1 x_2_0_3_sb +0 p0_2_0 -1 p1_2_0 >= -5
+0 x_2_0_0 +0 x_2_0_1 +1 x_2_0_2 +1 x_2_0_3 -1 x_2_0_0_sb +0 x_2_0_1_sb -1 x_2_0_2_sb +0 x_2_0_3_sb +0 p0_2_0 -1 p1_2_0 >= -2
+0 x_2_0_0 +0 x_2_0_1 +1 x_2_0_2 +0 x_2_0_3 +1 x_2_0_0_sb -1 x_2_0_1_sb +0 x_2_0_2_sb -1 x_2_0_3_sb +0 p0_2_0 +0 p1_2_0 >= -1
+0 x_2_0_0 -1 x_2_0_1 +0 x_2_0_2 -1 x_2_0_3 +0 x_2_0_0_sb +1 x_2_0_1_sb +0 x_2_0_2_sb +1 x_2_0_3_sb +0 p0_2_0 +1 p1_2_0 >= -1
+0 x_2_0_0 +1 x_2_0_1 +0 x_2_0_2 +1 x_2_0_3 +0 x_2_0_0_sb -1 x_2_0_1_sb +0 x_2_0_2_sb -1 x_2_0_3_sb +0 p0_2_0 +1 p1_2_0 >= -1
+1 x_2_0_0 -1 x_2_0_1 +1 x_2_0_2 -1 x_2_0_3 +1 x_2_0_0_sb +0 x_2_0_1_sb +0 x_2_0_2_sb +0 x_2_0_3_sb +0 p0_2_0 +0 p1_2_0 >= -1
+1 x_2_0_0 +0 x_2_0_1 +0 x_2_0_2 +0 x_2_0_3 +1 x_2_0_0_sb -1 x_2_0_1_sb +1 x_2_0_2_sb -1 x_2_0_3_sb +0 p0_2_0 +0 p1_2_0 >= -1
+0 x_2_0_0 -1 x_2_0_1 +0 x_2_0_2 -1 x_2_0_3 +1 x_2_0_0_sb -1 x_2_0_1_sb -1 x_2_0_2_sb -1 x_2_0_3_sb +0 p0_2_0 +0 p1_2_0 >= -4
+1 x_2_0_0 +0 x_2_0_1 +0 x_2_0_2 +1 x_2_0_3 +0 x_2_0_0_sb -1 x_2_0_1_sb -1 x_2_0_2_sb +1 x_2_0_3_sb +0 p0_2_0 -1 p1_2_0 >= -2
+0 x_2_0_0 +0 x_2_0_1 -1 x_2_0_2 +1 x_2_0_3 -1 x_2_0_0_sb +1 x_2_0_1_sb +0 x_2_0_2_sb -1 x_2_0_3_sb +0 p0_2_0 -1 p1_2_0 >= -3
+0 x_2_0_0 +1 x_2_0_1 +0 x_2_0_2 +1 x_2_0_3 -1 x_2_0_0_sb -1 x_2_0_1_sb +0 x_2_0_2_sb +1 x_2_0_3_sb +0 p0_2_0 -1 p1_2_0 >= -2
-1 x_2_0_0 +1 x_2_0_1 +0 x_2_0_2 -1 x_2_0_3 +0 x_2_0_0_sb +0 x_2_0_1_sb -1 x_2_0_2_sb +1 x_2_0_3_sb +0 p0_2_0 -1 p1_2_0 >= -3
-1 x_2_0_0 +0 x_2_0_1 +0 x_2_0_2 +0 x_2_0_3 -1 x_2_0_0_sb +1 x_2_0_1_sb +0 x_2_0_2_sb -1 x_2_0_3_sb +0 p0_2_0 -1 p1_2_0 >= -3
+0 x_2_0_0 +0 x_2_0_1 -1 x_2_0_2 +0 x_2_0_3 +1 x_2_0_0_sb +1 x_2_0_1_sb +0 x_2_0_2_sb +1 x_2_0_3_sb +0 p0_2_0 +0 p1_2_0 >= 0
+0 x_2_2_0 +0 x_2_2_1 +0 x_2_2_2 +0 x_2_2_3 +0 x_2_1_0_sb +0 x_2_1_1_sb +0 x_2_1_2_sb +0 x_2_1_3_sb -1 p0_2_1 -1 p1_2_1 >= -1
+0 x_2_2_0 +0 x_2_2_1 +0 x_2_2_2 +0 x_2_2_3 +0 x_2_1_0_sb +0 x_2_1_1_sb +0 x_2_1_2_sb -1 x_2_1_3_sb +1 p0_2_1 +1 p1_2_1 >= 0
+0 x_2_2_0 +0 x_2_2_1 +0 x_2_2_2 +0 x_2_2_3 +0 x_2_1_0_sb -1 x_2_1_1_sb +0 x_2_1_2_sb +0 x_2_1_3_sb +1 p0_2_1 +1 p1_2_1 >= 0
+0 x_2_2_0 +0 x_2_2_1 +0 x_2_2_2 +0 x_2_2_3 -1 x_2_1_0_sb +0 x_2_1_1_sb +0 x_2_1_2_sb +0 x_2_1_3_sb +1 p0_2_1 +1 p1_2_1 >= 0
+0 x_2_2_0 +0 x_2_2_1 +0 x_2_2_2 +0 x_2_2_3 +1 x_2_1_0_sb +1 x_2_1_1_sb +1 x_2_1_2_sb +1 x_2_1_3_sb +0 p0_2_1 -1 p1_2_1 >= 0
+0 x_2_2_0 +0 x_2_2_1 +0 x_2_2_2 -1 x_2_2_3 +1 x_2_1_0_sb +1 x_2_1_1_sb +0 x_2_1_2_sb +1 x_2_1_3_sb +0 p0_2_1 +1 p1_2_1 >= 0
-1 x_2_2_0 +0 x_2_2_1 -1 x_2_2_2 +0 x_2_2_3 +1 x_2_1_0_sb +0 x_2_1_1_sb +0 x_2_1_2_sb +1 x_2_1_3_sb +0 p0_2_1 -1 p1_2_1 >= -2
+1 x_2_2_0 +0 x_2_2_1 +1 x_2_2_2 +0 x_2_2_3 +1 x_2_1_0_sb +0 x_2_1_1_sb +1 x_2_1_2_sb +0 x_2_1_3_sb +0 p0_2_1 -1 p1_2_1 >= 0
+0 x_2_2_0 +0 x_2_2_1 +0 x_2_2_2 +1 x_2_2_3 +0 x_2_1_0_sb +1 x_2_1_1_sb -1 x_2_1_2_sb -1 x_2_1_3_sb +0 p0_2_1 -1 p1_2_1 >= -2
-1 x_2_2_0 +0 x_2_2_1 +0 x_2_2_2 -1 x_2_2_3 -1 x_2_1_0_sb +0 x_2_1_1_sb +0 x_2_1_2_sb +1 x_2_1_3_sb +0 p0_2_1 -1 p1_2_1 >= -3
+0 x_2_2_0 +0 x_2_2_1 +0 x_2_2_2 +1 x_2_2_3 -1 x_2_1_0_sb -1 x_2_1_1_sb -1 x_2_1_2_sb +0 x_2_1_3_sb +0 p0_2_1 -1 p1_2_1 >= -3
+1 x_2_2_0 +1 x_2_2_1 +0 x_2_2_2 +1 x_2_2_3 +0 x_2_1_0_sb +0 x_2_1_1_sb +0 x_2_1_2_sb +0 x_2_1_3_sb -1 p0_2_1 +0 p1_2_1 >= 0
+0 x_2_2_0 +0 x_2_2_1 +1 x_2_2_2 +1 x_2_2_3 +0 x_2_1_0_sb -1 x_2_1_1_sb +1 x_2_1_2_sb +0 x_2_1_3_sb +0 p0_2_1 -1 p1_2_1 >= -1
+0 x_2_2_0 +1 x_2_2_1 +0 x_2_2_2 -1 x_2_2_3 -1 x_2_1_0_sb +0 x_2_1_1_sb -1 x_2_1_2_sb +0 x_2_1_3_sb +0 p0_2_1 -1 p1_2_1 >= -3
+0 x_2_2_0 +1 x_2_2_1 +1 x_2_2_2 +0 x_2_2_3 +0 x_2_1_0_sb +0 x_2_1_1_sb +1 x_2_1_2_sb -1 x_2_1_3_sb +0 p0_2_1 -1 p1_2_1 >= -1
-1 x_2_2_0 +0 x_2_2_1 -1 x_2_2_2 +0 x_2_2_3 -1 x_2_1_0_sb +0 x_2_1_1_sb +1 x_2_1_2_sb +0 x_2_1_3_sb +0 p0_2_1 -1 p1_2_1 >= -3
+0 x_2_2_0 -1 x_2_2_1 -1 x_2_2_2 +0 x_2_2_3 +0 x_2_1_0_sb +1 x_2_1_1_sb +0 x_2_1_2_sb +1 x_2_1_3_sb +0 p0_2_1 -1 p1_2_1 >= -2
+0 x_2_2_0 -1 x_2_2_1 +0 x_2_2_2 +0 x_2_2_3 +1 x_2_1_0_sb +1 x_2_1_1_sb +0 x_2_1_2_sb +1 x_2_1_3_sb +0 p0_2_1 +1 p1_2_1 >= 0
-1 x_2_2_0 -1 x_2_2_1 +0 x_2_2_2 +1 x_2_2_3 +0 x_2_1_0_sb +1 x_2_1_1_sb +0 x_2_1_2_sb +1 x_2_1_3_sb +0 p0_2_1 -1 p1_2_1 >= -2
+0 x_2_2_0 -1 x_2_2_1 +0 x_2_2_2 +0 x_2_2_3 +1 x_2_1_0_sb +0 x_2_1_1_sb +1 x_2_1_2_sb +1 x_2_1_3_sb +0 p0_2_1 -1 p1_2_1 >= -1
-1 x_2_2_0 +0 x_2_2_1 -1 x_2_2_2 +0 x_2_2_3 +1 x_2_1_0_sb +1 x_2_1_1_sb +0 x_2_1_2_sb +0 x_2_1_3_sb +0 p0_2_1 -1 p1_2_1 >= -2
+0 x_2_2_0 +1 x_2_2_1 -1 x_2_2_2 -1 x_2_2_3 +0 x_2_1_0_sb +0 x_2_1_1_sb +0 x_2_1_2_sb +1 x_2_1_3_sb +0 p0_2_1 -1 p1_2_1 >= -2
-1 x_2_2_0 -1 x_2_2_1 +0 x_2_2_2 -1 x_2_2_3 +0 x_2_1_0_sb +1 x_2_1_1_sb +0 x_2_1_2_sb -1 x_2_1_3_sb +0 p0_2_1 -1 p1_2_1 >= -4
-1 x_2_2_0 +1 x_2_2_1 +0 x_2_2_2 +1 x_2_2_3 +0 x_2_1_0_sb +1 x_2_1_1_sb +0 x_2_1_2_sb +1 x_2_1_3_sb +0 p0_2_1 +1 p1_2_1 >= 0
+0 x_2_2_0 +0 x_2_2_1 +0 x_2_2_2 +0 x_2_2_3 +1 x_2_1_0_sb -1 x_2_1_1_sb +0 x_2_1_2_sb -1 x_2_1_3_sb +0 p0_2_1 +1 p1_2_1 >= -1
+1 x_2_2_0 +0 x_2_2_1 +1 x_2_2_2 +0 x_2_2_3 +1 x_2_1_0_sb -1 x_2_1_1_sb +0 x_2_1_2_sb +0 x_2_1_3_sb +0 p0_2_1 -1 p1_2_1 >= -1
+0 x_2_2_0 +1 x_2_2_1 +0 x_2_2_2 +1 x_2_2_3 +0 x_2_1_0_sb -1 x_2_1_1_sb -1 x_2_1_2_sb +0 x_2_1_3_sb +0 p0_2_1 -1 p1_2_1 >= -2
+1 x_2_2_0 -1 x_2_2_1 +0 x_2_2_2 -1 x_2_2_3 +0 x_2_1_0_sb +0 x_2_1_1_sb +1 x_2_1_2_sb +0 x_2_1_3_sb +0 p0_2_1 +0 p1_2_1 >= -1
+1 x_2_2_0 -1 x_2_2_1 -1 x_2_2_2 +0 x_2_2_3 +0 x_2_1_0_sb +0 x_2_1_1_sb +1 x_2_1_2_sb -1 x_2_1_3_sb +0 p0_2_1 -1 p1_2_1 >= -3
+1 x_2_2_0 -1 x_2_2_1 +0 x_2_2_2 -1 x_2_2_3 +0 x_2_1_0_sb +0 x_2_1_1_sb +0 x_2_1_2_sb +0 x_2_1_3_sb +0 p0_2_1 +1 p1_2_1 >= -1
+1 x_2_2_0 +0 x_2_2_1 +0 x_2_2_2 +0 x_2_2_3 -1 x_2_1_0_sb +1 x_2_1_1_sb +0 x_2_1_2_sb -1 x_2_1_3_sb +0 p0_2_1 +1 p1_2_1 >= -1
+1 x_2_2_0 +0 x_2_2_1 +0 x_2_2_2 +0 x_2_2_3 -1 x_2_1_0_sb -1 x_2_1_1_sb +0 x_2_1_2_sb +1 x_2_1_3_sb +0 p0_2_1 +1 p1_2_1 >= -1
-1 x_2_2_0 -1 x_2_2_1 +0 x_2_2_2 +1 x_2_2_3 +1 x_2_1_0_sb +0 x_2_1_1_sb +0 x_2_1_2_sb +0 x_2_1_3_sb +0 p0_2_1 +1 p1_2_1 >= -1
-1 x_2_2_0 +1 x_2_2_1 +0 x_2_2_2 -1 x_2_2_3 +1 x_2_1_0_sb +0 x_2_1_1_sb +0 x_2_1_2_sb +0 x_2_1_3_sb +0 p0_2_1 +1 p1_2_1 >= -1
+0 x_2_2_0 -1 x_2_2_1 +0 x_2_2_2 -1 x_2_2_3 +0 x_2_1_0_sb -1 x_2_1_1_sb +0 x_2_1_2_sb -1 x_2_1_3_sb +0 p0_2_1 +1 p1_2_1 >= -3
+1 x_2_2_0 +1 x_2_2_1 +0 x_2_2_2 +1 x_2_2_3 +0 x_2_1_0_sb +0 x_2_1_1_sb -1 x_2_1_2_sb +0 x_2_1_3_sb +0 p0_2_1 +0 p1_2_1 >= 0
-1 x_2_2_0 +0 x_2_2_1 +1 x_2_2_2 -1 x_2_2_3 +0 x_2_1_0_sb -1 x_2_1_1_sb -1 x_2_1_2_sb +0 x_2_1_3_sb +0 p0_2_1 -1 p1_2_1 >= -4
+1 x_2_2_0 +1 x_2_2_1 +0 x_2_2_2 -1 x_2_2_3 +1 x_2_1_0_sb +1 x_2_1_1_sb +0 x_2_1_2_sb -1 x_2_1_3_sb +0 p0_2_1 -1 p1_2_1 >= -2
+1 x_2_2_0 +0 x_2_2_1 +1 x_2_2_2 +0 x_2_2_3 +0 x_2_1_0_sb +1 x_2_1_1_sb +1 x_2_1_2_sb +1 x_2_1_3_sb +0 p0_2_1 -1 p1_2_1 >= 0
+1 x_2_2_0 +0 x_2_2_1 -1 x_2_2_2 -1 x_2_2_3 -1 x_2_1_0_sb -1 x_2_1_1_sb +0 x_2_1_2_sb -1 x_2_1_3_sb +0 p0_2_1 -1 p1_2_1 >= -5
+0 x_2_2_0 +0 x_2_2_1 +1 x_2_2_2 +1 x_2_2_3 -1 x_2_1_0_sb +0 x_2_1_1_sb -1 x_2_1_2_sb +0 x_2_1_3_sb +0 p0_2_1 -1 p1_2_1 >= -2
+0 x_2_2_0 +0 x_2_2_1 +1 x_2_2_2 +0 x_2_2_3 +1 x_2_1_0_sb -1 x_2_1_1_sb +0 x_2_1_2_sb -1 x_2_1_3_sb +0 p0_2_1 +0 p1_2_1 >= -1
+0 x_2_2_0 -1 x_2_2_1 +0 x_2_2_2 -1 x_2_2_3 +0 x_2_1_0_sb +1 x_2_1_1_sb +0 x_2_1_2_sb +1 x_2_1_3_sb +0 p0_2_1 +1 p1_2_1 >= -1
+0 x_2_2_0 +1 x_2_2_1 +0 x_2_2_2 +1 x_2_2_3 +0 x_2_1_0_sb -1 x_2_1_1_sb +0 x_2_1_2_sb -1 x_2_1_3_sb +0 p0_2_1 +1 p1_2_1 >= -1
+1 x_2_2_0 -1 x_2_2_1 +1 x_2_2_2 -1 x_2_2_3 +1 x_2_1_0_sb +0 x_2_1_1_sb +0 x_2_1_2_sb +0 x_2_1_3_sb +0 p0_2_1 +0 p1_2_1 >= -1
+1 x_2_2_0 +0 x_2_2_1 +0 x_2_2_2 +0 x_2_2_3 +1 x_2_1_0_sb -1 x_2_1_1_sb +1 x_2_1_2_sb -1 x_2_1_3_sb +0 p0_2_1 +0 p1_2_1 >= -1
+0 x_2_2_0 -1 x_2_2_1 +0 x_2_2_2 -1 x_2_2_3 +1 x_2_1_0_sb -1 x_2_1_1_sb -1 x_2_1_2_sb -1 x_2_1_3_sb +0 p0_2_1 +0 p1_2_1 >= -4
+1 x_2_2_0 +0 x_2_2_1 +0 x_2_2_2 +1 x_2_2_3 +0 x_2_1_0_sb -1 x_2_1_1_sb -1 x_2_1_2_sb +1 x_2_1_3_sb +0 p0_2_1 -1 p1_2_1 >= -2
+0 x_2_2_0 +0 x_2_2_1 -1 x_2_2_2 +1 x_2_2_3 -1 x_2_1_0_sb +1 x_2_1_1_sb +0 x_2_1_2_sb -1 x_2_1_3_sb +0 p0_2_1 -1 p1_2_1 >= -3
+0 x_2_2_0 +1 x_2_2_1 +0 x_2_2_2 +1 x_2_2_3 -1 x_2_1_0_sb -1 x_2_1_1_sb +0 x_2_1_2_sb +1 x_2_1_3_sb +0 p0_2_1 -1 p1_2_1 >= -2
-1 x_2_2_0 +1 x_2_2_1 +0 x_2_2_2 -1 x_2_2_3 +0 x_2_1_0_sb +0 x_2_1_1_sb -1 x_2_1_2_sb +1 x_2_1_3_sb +0 p0_2_1 -1 p1_2_1 >= -3
-1 x_2_2_0 +0 x_2_2_1 +0 x_2_2_2 +0 x_2_2_3 -1 x_2_1_0_sb +1 x_2_1_1_sb +0 x_2_1_2_sb -1 x_2_1_3_sb +0 p0_2_1 -1 p1_2_1 >= -3
+0 x_2_2_0 +0 x_2_2_1 -1 x_2_2_2 +0 x_2_2_3 +1 x_2_1_0_sb +1 x_2_1_1_sb +0 x_2_1_2_sb +1 x_2_1_3_sb +0 p0_2_1 +0 p1_2_1 >= 0
+0 x_2_4_0 +0 x_2_4_1 +0 x_2_4_2 +0 x_2_4_3 +0 x_2_2_0_sb +0 x_2_2_1_sb +0 x_2_2_2_sb +0 x_2_2_3_sb -1 p0_2_2 -1 p1_2_2 >= -1
+0 x_2_4_0 +0 x_2_4_1 +0 x_2_4_2 +0 x_2_4_3 +0 x_2_2_0_sb +0 x_2_2_1_sb +0 x_2_2_2_sb -1 x_2_2_3_sb +1 p0_2_2 +1 p1_2_2 >= 0
+0 x_2_4_0 +0 x_2_4_1 +0 x_2_4_2 +0 x_2_4_3 +0 x_2_2_0_sb -1 x_2_2_1_sb +0 x_2_2_2_sb +0 x_2_2_3_sb +1 p0_2_2 +1 p1_2_2 >= 0
+0 x_2_4_0 +0 x_2_4_1 +0 x_2_4_2 +0 x_2_4_3 -1 x_2_2_0_sb +0 x_2_2_1_sb +0 x_2_2_2_sb +0 x_2_2_3_sb +1 p0_2_2 +1 p1_2_2 >= 0
+0 x_2_4_0 +0 x_2_4_1 +0 x_2_4_2 +0 x_2_4_3 +1 x_2_2_0_sb +1 x_2_2_1_sb +1 x_2_2_2_sb +1 x_2_2_3_sb +0 p0_2_2 -1 p1_2_2 >= 0
+0 x_2_4_0 +0 x_2_4_1 +0 x_2_4_2 -1 x_2_4_3 +1 x_2_2_0_sb +1 x_2_2_1_sb +0 x_2_2_2_sb +1 x_2_2_3_sb +0 p0_2_2 +1 p1_2_2 >= 0
-1 x_2_4_0 +0 x_2_4_1 -1 x_2_4_2 +0 x_2_4_3 +1 x_2_2_0_sb +0 x_2_2_1_sb +0 x_2_2_2_sb +1 x_2_2_3_sb +0 p0_2_2 -1 p1_2_2 >= -2
+1 x_2_4_0 +0 x_2_4_1 +1 x_2_4_2 +0 x_2_4_3 +1 x_2_2_0_sb +0 x_2_2_1_sb +1 x_2_2_2_sb +0 x_2_2_3_sb +0 p0_2_2 -1 p1_2_2 >= 0
+0 x_2_4_0 +0 x_2_4_1 +0 x_2_4_2 +1 x_2_4_3 +0 x_2_2_0_sb +1 x_2_2_1_sb -1 x_2_2_2_sb -1 x_2_2_3_sb +0 p0_2_2 -1 p1_2_2 >= -2
-1 x_2_4_0 +0 x_2_4_1 +0 x_2_4_2 -1 x_2_4_3 -1 x_2_2_0_sb +0 x_2_2_1_sb +0 x_2_2_2_sb +1 x_2_2_3_sb +0 p0_2_2 -1 p1_2_2 >= -3
+0 x_2_4_0 +0 x_2_4_1 +0 x_2_4_2 +1 x_2_4_3 -1 x_2_2_0_sb -1 x_2_2_1_sb -1 x_2_2_2_sb +0 x_2_2_3_sb +0 p0_2_2 -1 p1_2_2 >= -3
+1 x_2_4_0 +1 x_2_4_1 +0 x_2_4_2 +1 x_2_4_3 +0 x_2_2_0_sb +0 x_2_2_1_sb +0 x_2_2_2_sb +0 x_2_2_3_sb -1 p0_2_2 +0 p1_2_2 >= 0
+0 x_2_4_0 +0 x_2_4_1 +1 x_2_4_2 +1 x_2_4_3 +0 x_2_2_0_sb -1 x_2_2_1_sb +1 x_2_2_2_sb +0 x_2_2_3_sb +0 p0_2_2 -1 p1_2_2 >= -1
+0 x_2_4_0 +1 x_2_4_1 +0 x_2_4_2 -1 x_2_4_3 -1 x_2_2_0_sb +0 x_2_2_1_sb -1 x_2_2_2_sb +0 x_2_2_3_sb +0 p0_2_2 -1 p1_2_2 >= -3
+0 x_2_4_0 +1 x_2_4_1 +1 x_2_4_2 +0 x_2_4_3 +0 x_2_2_0_sb +0 x_2_2_1_sb +1 x_2_2_2_sb -1 x_2_2_3_sb +0 p0_2_2 -1 p1_2_2 >= -1
-1 x_2_4_0 +0 x_2_4_1 -1 x_2_4_2 +0 x_2_4_3 -1 x_2_2_0_sb +0 x_2_2_1_sb +1 x_2_2_2_sb +0 x_2_2_3_sb +0 p0_2_2 -1 p1_2_2 >= -3
+0 x_2_4_0 -1 x_2_4_1 -1 x_2_4_2 +0 x_2_4_3 +0 x_2_2_0_sb +1 x_2_2_1_sb +0 x_2_2_2_sb +1 x_2_2_3_sb +0 p0_2_2 -1 p1_2_2 >= -2
+0 x_2_4_0 -1 x_2_4_1 +0 x_2_4_2 +0 x_2_4_3 +1 x_2_2_0_sb +1 x_2_2_1_sb +0 x_2_2_2_sb +1 x_2_2_3_sb +0 p0_2_2 +1 p1_2_2 >= 0
-1 x_2_4_0 -1 x_2_4_1 +0 x_2_4_2 +1 x_2_4_3 +0 x_2_2_0_sb +1 x_2_2_1_sb +0 x_2_2_2_sb +1 x_2_2_3_sb +0 p0_2_2 -1 p1_2_2 >= -2
+0 x_2_4_0 -1 x_2_4_1 +0 x_2_4_2 +0 x_2_4_3 +1 x_2_2_0_sb +0 x_2_2_1_sb +1 x_2_2_2_sb +1 x_2_2_3_sb +0 p0_2_2 -1 p1_2_2 >= -1
-1 x_2_4_0 +0 x_2_4_1 -1 x_2_4_2 +0 x_2_4_3 +1 x_2_2_0_sb +1 x_2_2_1_sb +0 x_2_2_2_sb +0 x_2_2_3_sb +0 p0_2_2 -1 p1_2_2 >= -2
+0 x_2_4_0 +1 x_2_4_1 -1 x_2_4_2 -1 x_2_4_3 +0 x_2_2_0_sb +0 x_2_2_1_sb +0 x_2_2_2_sb +1 x_2_2_3_sb +0 p0_2_2 -1 p1_2_2 >= -2
-1 x_2_4_0 -1 x_2_4_1 +0 x_2_4_2 -1 x_2_4_3 +0 x_2_2_0_sb +1 x_2_2_1_sb +0 x_2_2_2_sb -1 x_2_2_3_sb +0 p0_2_2 -1 p1_2_2 >= -4
-1 x_2_4_0 +1 x_2_4_1 +0 x_2_4_2 +1 x_2_4_3 +0 x_2_2_0_sb +1 x_2_2_1_sb +0 x_2_2_2_sb +1 x_2_2_3_sb +0 p0_2_2 +1 p1_2_2 >= 0
+0 x_2_4_0 +0 x_2_4_1 +0 x_2_4_2 +0 x_2_4_3 +1 x_2_2_0_sb -1 x_2_2_1_sb +0 x_2_2_2_sb -1 x_2_2_3_sb +0 p0_2_2 +1 p1_2_2 >= -1
+1 x_2_4_0 +0 x_2_4_1 +1 x_2_4_2 +0 x_2_4_3 +1 x_2_2_0_sb -1 x_2_2_1_sb +0 x_2_2_2_sb +0 x_2_2_3_sb +0 p0_2_2 -1 p1_2_2 >= -1
+0 x_2_4_0 +1 x_2_4_1 +0 x_2_4_2 +1 x_2_4_3 +0 x_2_2_0_sb -1 x_2_2_1_sb -1 x_2_2_2_sb +0 x_2_2_3_sb +0 p0_2_2 -1 p1_2_2 >= -2
+1 x_2_4_0 -1 x_2_4_1 +0 x_2_4_2 -1 x_2_4_3 +0 x_2_2_0_sb +0 x_2_2_1_sb +1 x_2_2_2_sb +0 x_2_2_3_sb +0 p0_2_2 +0 p1_2_2 >= -1
+1 x_2_4_0 -1 x_2_4_1 -1 x_2_4_2 +0 x_2_4_3 +0 x_2_2_0_sb +0 x_2_2_1_sb +1 x_2_2_2_sb -1 x_2_2_3_sb +0 p0_2_2 -1 p1_2_2 >= -3
+1 x_2_4_0 -1 x_2_4_1 +0 x_2_4_2 -1 x_2_4_3 +0 x_2_2_0_sb +0 x_2_2_1_sb +0 x_2_2_2_sb +0 x_2_2_3_sb +0 p0_2_2 +1 p1_2_2 >= -1
+1 x_2_4_0 +0 x_2_4_1 +0 x_2_4_2 +0 x_2_4_3 -1 x_2_2_0_sb +1 x_2_2_1_sb +0 x_2_2_2_sb -1 x_2_2_3_sb +0 p0_2_2 +1 p1_2_2 >= -1
+1 x_2_4_0 +0 x_2_4_1 +0 x_2_4_2 +0 x_2_4_3 -1 x_2_2_0_sb -1 x_2_2_1_sb +0 x_2_2_2_sb +1 x_2_2_3_sb +0 p0_2_2 +1 p1_2_2 >= -1
-1 x_2_4_0 -1 x_2_4_1 +0 x_2_4_2 +1 x_2_4_3 +1 x_2_2_0_sb +0 x_2_2_1_sb +0 x_2_2_2_sb +0 x_2_2_3_sb +0 p0_2_2 +1 p1_2_2 >= -1
-1 x_2_4_0 +1 x_2_4_1 +0 x_2_4_2 -1 x_2_4_3 +1 x_2_2_0_sb +0 x_2_2_1_sb +0 x_2_2_2_sb +0 x_2_2_3_sb +0 p0_2_2 +1 p1_2_2 >= -1
+0 x_2_4_0 -1 x_2_4_1 +0 x_2_4_2 -1 x_2_4_3 +0 x_2_2_0_sb -1 x_2_2_1_sb +0 x_2_2_2_sb -1 x_2_2_3_sb +0 p0_2_2 +1 p1_2_2 >= -3
+1 x_2_4_0 +1 x_2_4_1 +0 x_2_4_2 +1 x_2_4_3 +0 x_2_2_0_sb +0 x_2_2_1_sb -1 x_2_2_2_sb +0 x_2_2_3_sb +0 p0_2_2 +0 p1_2_2 >= 0
-1 x_2_4_0 +0 x_2_4_1 +1 x_2_4_2 -1 x_2_4_3 +0 x_2_2_0_sb -1 x_2_2_1_sb -1 x_2_2_2_sb +0 x_2_2_3_sb +0 p0_2_2 -1 p1_2_2 >= -4
+1 x_2_4_0 +1 x_2_4_1 +0 x_2_4_2 -1 x_2_4_3 +1 x_2_2_0_sb +1 x_2_2_1_sb +0 x_2_2_2_sb -1 x_2_2_3_sb +0 p0_2_2 -1 p1_2_2 >= -2
+1 x_2_4_0 +0 x_2_4_1 +1 x_2_4_2 +0 x_2_4_3 +0 x_2_2_0_sb +1 x_2_2_1_sb +1 x_2_2_2_sb +1 x_2_2_3_sb +0 p0_2_2 -1 p1_2_2 >= 0
+1 x_2_4_0 +0 x_2_4_1 -1 x_2_4_2 -1 x_2_4_3 -1 x_2_2_0_sb -1 x_2_2_1_sb +0 x_2_2_2_sb -1 x_2_2_3_sb +0 p0_2_2 -1 p1_2_2 >= -5
+0 x_2_4_0 +0 x_2_4_1 +1 x_2_4_2 +1 x_2_4_3 -1 x_2_2_0_sb +0 x_2_2_1_sb -1 x_2_2_2_sb +0 x_2_2_3_sb +0 p0_2_2 -1 p1_2_2 >= -2
+0 x_2_4_0 +0 x_2_4_1 +1 x_2_4_2 +0 x_2_4_3 +1 x_2_2_0_sb -1 x_2_2_1_sb +0 x_2_2_2_sb -1 x_2_2_3_sb +0 p0_2_2 +0 p1_2_2 >= -1
+0 x_2_4_0 -1 x_2_4_1 +0 x_2_4_2 -1 x_2_4_3 +0 x_2_2_0_sb +1 x_2_2_1_sb +0 x_2_2_2_sb +1 x_2_2_3_sb +0 p0_2_2 +1 p1_2_2 >= -1
+0 x_2_4_0 +1 x_2_4_1 +0 x_2_4_2 +1 x_2_4_3 +0 x_2_2_0_sb -1 x_2_2_1_sb +0 x_2_2_2_sb -1 x_2_2_3_sb +0 p0_2_2 +1 p1_2_2 >= -1
+1 x_2_4_0 -1 x_2_4_1 +1 x_2_4_2 -1 x_2_4_3 +1 x_2_2_0_sb +0 x_2_2_1_sb +0 x_2_2_2_sb +0 x_2_2_3_sb +0 p0_2_2 +0 p1_2_2 >= -1
+1 x_2_4_0 +0 x_2_4_1 +0 x_2_4_2 +0 x_2_4_3 +1 x_2_2_0_sb -1 x_2_2_1_sb +1 x_2_2_2_sb -1 x_2_2_3_sb +0 p0_2_2 +0 p1_2_2 >= -1
+0 x_2_4_0 -1 x_2_4_1 +0 x_2_4_2 -1 x_2_4_3 +1 x_2_2_0_sb -1 x_2_2_1_sb -1 x_2_2_2_sb -1 x_2_2_3_sb +0 p0_2_2 +0 p1_2_2 >= -4
+1 x_2_4_0 +0 x_2_4_1 +0 x_2_4_2 +1 x_2_4_3 +0 x_2_2_0_sb -1 x_2_2_1_sb -1 x_2_2_2_sb +1 x_2_2_3_sb +0 p0_2_2 -1 p1_2_2 >= -2
+0 x_2_4_0 +0 x_2_4_1 -1 x_2_4_2 +1 x_2_4_3 -1 x_2_2_0_sb +1 x_2_2_1_sb +0 x_2_2_2_sb -1 x_2_2_3_sb +0 p0_2_2 -1 p1_2_2 >= -3
+0 x_2_4_0 +1 x_2_4_1 +0 x_2_4_2 +1 x_2_4_3 -1 x_2_2_0_sb -1 x_2_2_1_sb +0 x_2_2_2_sb +1 x_2_2_3_sb +0 p0_2_2 -1 p1_2_2 >= -2
-1 x_2_4_0 +1 x_2_4_1 +0 x_2_4_2 -1 x_2_4_3 +0 x_2_2_0_sb +0 x_2_2_1_sb -1 x_2_2_2_sb +1 x_2_2_3_sb +0 p0_2_2 -1 p1_2_2 >= -3
-1 x_2_4_0 +0 x_2_4_1 +0 x_2_4_2 +0 x_2_4_3 -1 x_2_2_0_sb +1 x_2_2_1_sb +0 x_2_2_2_sb -1 x_2_2_3_sb +0 p0_2_2 -1 p1_2_2 >= -3
+0 x_2_4_0 +0 x_2_4_1 -1 x_2_4_2 +0 x_2_4_3 +1 x_2_2_0_sb +1 x_2_2_1_sb +0 x_2_2_2_sb +1 x_2_2_3_sb +0 p0_2_2 +0 p1_2_2 >= 0
+0 x_2_6_0 +0 x_2_6_1 +0 x_2_6_2 +0 x_2_6_3 +0 x_2_3_0_sb +0 x_2_3_1_sb +0 x_2_3_2_sb +0 x_2_3_3_sb -1 p0_2_3 -1 p1_2_3 >= -1
+0 x_2_6_0 +0 x_2_6_1 +0 x_2_6_2 +0 x_2_6_3 +0 x_2_3_0_sb +0 x_2_3_1_sb +0 x_2_3_2_sb -1 x_2_3_3_sb +1 p0_2_3 +1 p1_2_3 >= 0
+0 x_2_6_0 +0 x_2_6_1 +0 x_2_6_2 +0 x_2_6_3 +0 x_2_3_0_sb -1 x_2_3_1_sb +0 x_2_3_2_sb +0 x_2_3_3_sb +1 p0_2_3 +1 p1_2_3 >= 0
+0 x_2_6_0 +0 x_2_6_1 +0 x_2_6_2 +0 x_2_6_3 -1 x_2_3_0_sb +0 x_2_3_1_sb +0 x_2_3_2_sb +0 x_2_3_3_sb +1 p0_2_3 +1 p1_2_3 >= 0
+0 x_2_6_0 +0 x_2_6_1 +0 x_2_6_2 +0 x_2_6_3 +1 x_2_3_0_sb +1 x_2_3_1_sb +1 x_2_3_2_sb +1 x_2_3_3_sb +0 p0_2_3 -1 p1_2_3 >= 0
+0 x_2_6_0 +0 x_2_6_1 +0 x_2_6_2 -1 x_2_6_3 +1 x_2_3_0_sb +1 x_2_3_1_sb +0 x_2_3_2_sb +1 x_2_3_3_sb +0 p0_2_3 +1 p1_2_3 >= 0
-1 x_2_6_0 +0 x_2_6_1 -1 x_2_6_2 +0 x_2_6_3 +1 x_2_3_0_sb +0 x_2_3_1_sb +0 x_2_3_2_sb +1 x_2_3_3_sb +0 p0_2_3 -1 p1_2_3 >= -2
+1 x_2_6_0 +0 x_2_6_1 +1 x_2_6_2 +0 x_2_6_3 +1 x_2_3_0_sb +0 x_2_3_1_sb +1 x_2_3_2_sb +0 x_2_3_3_sb +0 p0_2_3 -1 p1_2_3 >= 0
+0 x_2_6_0 +0 x_2_6_1 +0 x_2_6_2 +1 x_2_6_3 +0 x_2_3_0_sb +1 x_2_3_1_sb -1 x_2_3_2_sb -1 x_2_3_3_sb +0 p0_2_3 -1 p1_2_3 >= -2
-1 x_2_6_0 +0 x_2_6_1 +0 x_2_6_2 -1 x_2_6_3 -1 x_2_3_0_sb +0 x_2_3_1_sb +0 x_2_3_2_sb +1 x_2_3_3_sb +0 p0_2_3 -1 p1_2_3 >= -3
+0 x_2_6_0 +0 x_2_6_1 +0 x_2_6_2 +1 x_2_6_3 -1 x_2_3_0_sb -1 x_2_3_1_sb -1 x_2_3_2_sb +0 x_2_3_3_sb +0 p0_2_3 -1 p1_2_3 >= -3
+1 x_2_6_0 +1 x_2_6_1 +0 x_2_6_2 +1 x_2_6_3 +0 x_2_3_0_sb +0 x_2_3_1_sb +0 x_2_3_2_sb +0 x_2_3_3_sb -1 p0_2_3 +0 p1_2_3 >= 0
+0 x_2_6_0 +0 x_2_6_1 +1 x_2_6_2 +1 x_2_6_3 +0 x_2_3_0_sb -1 x_2_3_1_sb +1 x_2_3_2_sb +0 x_2_3_3_sb +0 p0_2_3 -1 p1_2_3 >= -1
+0 x_2_6_0 +1 x_2_6_1 +0 x_2_6_2 -1 x_2_6_3 -1 x_2_3_0_sb +0 x_2_3_1_sb -1 x_2_3_2_sb +0 x_2_3_3_sb +0 p0_2_3 -1 p1_2_3 >= -3
+0 x_2_6_0 +1 x_2_6_1 +1 x_2_6_2 +0 x_2_6_3 +0 x_2_3_0_sb +0 x_2_3_1_sb +1 x_2_3_2_sb -1 x_2_3_3_sb +0 p0_2_3 -1 p1_2_3 >= -1
-1 x_2_6_0 +0 x_2_6_1 -1 x_2_6_2 +0 x_2_6_3 -1 x_2_3_0_sb +0 x_2_3_1_sb +1 x_2_3_2_sb +0 x_2_3_3_sb +0 p0_2_3 -1 p1_2_3 >= -3
+0 x_2_6_0 -1 x_2_6_1 -1 x_2_6_2 +0 x_2_6_3 +0 x_2_3_0_sb +1 x_2_3_1_sb +0 x_2_3_2_sb +1 x_2_3_3_sb +0 p0_2_3 -1 p1_2_3 >= -2
+0 x_2_6_0 -1 x_2_6_1 +0 x_2_6_2 +0 x_2_6_3 +1 x_2_3_0_sb +1 x_2_3_1_sb +0 x_2_3_2_sb +1 x_2_3_3_sb +0 p0_2_3 +1 p1_2_3 >= 0
-1 x_2_6_0 -1 x_2_6_1 +0 x_2_6_2 +1 x_2_6_3 +0 x_2_3_0_sb +1 x_2_3_1_sb +0 x_2_3_2_sb +1 x_2_3_3_sb +0 p0_2_3 -1 p1_2_3 >= -2
+0 x_2_6_0 -1 x_2_6_1 +0 x_2_6_2 +0 x_2_6_3 +1 x_2_3_0_sb +0 x_2_3_1_sb +1 x_2_3_2_sb +1 x_2_3_3_sb +0 p0_2_3 -1 p1_2_3 >= -1
-1 x_2_6_0 +0 x_2_6_1 -1 x_2_6_2 +0 x_2_6_3 +1 x_2_3_0_sb +1 x_2_3_1_sb +0 x_2_3_2_sb +0 x_2_3_3_sb +0 p0_2_3 -1 p1_2_3 >= -2
+0 x_2_6_0 +1 x_2_6_1 -1 x_2_6_2 -1 x_2_6_3 +0 x_2_3_0_sb +0 x_2_3_1_sb +0 x_2_3_2_sb +1 x_2_3_3_sb +0 p0_2_3 -1 p1_2_3 >= -2
-1 x_2_6_0 -1 x_2_6_1 +0 x_2_6_2 -1 x_2_6_3 +0 x_2_3_0_sb +1 x_2_3_1_sb +0 x_2_3_2_sb -1 x_2_3_3_sb +0 p0_2_3 -1 p1_2_3 >= -4
-1 x_2_6_0 +1 x_2_6_1 +0 x_2_6_2 +1 x_2_6_3 +0 x_2_3_0_sb +1 x_2_3_1_sb +0 x_2_3_2_sb +1 x_2_3_3_sb +0 p0_2_3 +1 p1_2_3 >= 0
+0 x_2_6_0 +0 x_2_6_1 +0 x_2_6_2 +0 x_2_6_3 +1 x_2_3_0_sb -1 x_2_3_1_sb +0 x_2_3_2_sb -1 x_2_3_3_sb +0 p0_2_3 +1 p1_2_3 >= -1
+1 x_2_6_0 +0 x_2_6_1 +1 x_2_6_2 +0 x_2_6_3 +1 x_2_3_0_sb -1 x_2_3_1_sb +0 x_2_3_2_sb +0 x_2_3_3_sb +0 p0_2_3 -1 p1_2_3 >= -1
+0 x_2_6_0 +1 x_2_6_1 +0 x_2_6_2 +1 x_2_6_3 +0 x_2_3_0_sb -1 x_2_3_1_sb -1 x_2_3_2_sb +0 x_2_3_3_sb +0 p0_2_3 -1 p1_2_3 >= -2
+1 x_2_6_0 -1 x_2_6_1 +0 x_2_6_2 -1 x_2_6_3 +0 x_2_3_0_sb +0 x_2_3_1_sb +1 x_2_3_2_sb +0 x_2_3_3_sb +0 p0_2_3 +0 p1_2_3 >= -1
+1 x_2_6_0 -1 x_2_6_1 -1 x_2_6_2 +0 x_2_6_3 +0 x_2_3_0_sb +0 x_2_3_1_sb +1 x_2_3_2_sb -1 x_2_3_3_sb +0 p0_2_3 -1 p1_2_3 >= -3
+1 x_2_6_0 -1 x_2_6_1 +0 x_2_6_2 -1 x_2_6_3 +0 x_2_3_0_sb +0 x_2_3_1_sb +0 x_2_3_2_sb +0 x_2_3_3_sb +0 p0_2_3 +1 p1_2_3 >= -1
+1 x_2_6_0 +0 x_2_6_1 +0 x_2_6_2 +0 x_2_6_3 -1 x_2_3_0_sb +1 x_2_3_1_sb +0 x_2_3_2_sb -1 x_2_3_3_sb +0 p0_2_3 +1 p1_2_3 >= -1
+1 x_2_6_0 +0 x_2_6_1 +0 x_2_6_2 +0 x_2_6_3 -1 x_2_3_0_sb -1 x_2_3_1_sb +0 x_2_3_2_sb +1 x_2_3_3_sb +0 p0_2_3 +1 p1_2_3 >= -1
-1 x_2_6_0 -1 x_2_6_1 +0 x_2_6_2 +1 x_2_6_3 +1 x_2_3_0_sb +0 x_2_3_1_sb +0 x_2_3_2_sb +0 x_2_3_3_sb +0 p0_2_3 +1 p1_2_3 >= -1
-1 x_2_6_0 +1 x_2_6_1 +0 x_2_6_2 -1 x_2_6_3 +1 x_2_3_0_sb +0 x_2_3_1_sb +0 x_2_3_2_sb +0 x_2_3_3_sb +0 p0_2_3 +1 p1_2_3 >= -1
+0 x_2_6_0 -1 x_2_6_1 +0 x_2_6_2 -1 x_2_6_3 +0 x_2_3_0_sb -1 x_2_3_1_sb +0 x_2_3_2_sb -1 x_2_3_3_sb +0 p0_2_3 +1 p1_2_3 >= -3
+1 x_2_6_0 +1 x_2_6_1 +0 x_2_6_2 +1 x_2_6_3 +0 x_2_3_0_sb +0 x_2_3_1_sb -1 x_2_3_2_sb +0 x_2_3_3_sb +0 p0_2_3 +0 p1_2_3 >= 0
-1 x_2_6_0 +0 x_2_6_1 +1 x_2_6_2 -1 x_2_6_3 +0 x_2_3_0_sb -1 x_2_3_1_sb -1 x_2_3_2_sb +0 x_2_3_3_sb +0 p0_2_3 -1 p1_2_3 >= -4
+1 x_2_6_0 +1 x_2_6_1 +0 x_2_6_2 -1 x_2_6_3 +1 x_2_3_0_sb +1 x_2_3_1_sb +0 x_2_3_2_sb -1 x_2_3_3_sb +0 p0_2_3 -1 p1_2_3 >= -2
+1 x_2_6_0 +0 x_2_6_1 +1 x_2_6_2 +0 x_2_6_3 +0 x_2_3_0_sb +1 x_2_3_1_sb +1 x_2_3_2_sb +1 x_2_3_3_sb +0 p0_2_3 -1 p1_2_3 >= 0
+1 x_2_6_0 +0 x_2_6_1 -1 x_2_6_2 -1 x_2_6_3 -1 x_2_3_0_sb -1 x_2_3_1_sb +0 x_2_3_2_sb -1 x_2_3_3_sb +0 p0_2_3 -1 p1_2_3 >= -5
+0 x_2_6_0 +0 x_2_6_1 +1 x_2_6_2 +1 x_2_6_3 -1 x_2_3_0_sb +0 x_2_3_1_sb -1 x_2_3_2_sb +0 x_2_3_3_sb +0 p0_2_3 -1 p1_2_3 >= -2
+0 x_2_6_0 +0 x_2_6_1 +1 x_2_6_2 +0 x_2_6_3 +1 x_2_3_0_sb -1 x_2_3_1_sb +0 x_2_3_2_sb -1 x_2_3_3_sb +0 p0_2_3 +0 p1_2_3 >= -1
+0 x_2_6_0 -1 x_2_6_1 +0 x_2_6_2 -1 x_2_6_3 +0 x_2_3_0_sb +1 x_2_3_1_sb +0 x_2_3_2_sb +1 x_2_3_3_sb +0 p0_2_3 +1 p1_2_3 >= -1
+0 x_2_6_0 +1 x_2_6_1 +0 x_2_6_2 +1 x_2_6_3 +0 x_2_3_0_sb -1 x_2_3_1_sb +0 x_2_3_2_sb -1 x_2_3_3_sb +0 p0_2_3 +1 p1_2_3 >= -1
+1 x_2_6_0 -1 x_2_6_1 +1 x_2_6_2 -1 x_2_6_3 +1 x_2_3_0_sb +0 x_2_3_1_sb +0 x_2_3_2_sb +0 x_2_3_3_sb +0 p0_2_3 +0 p1_2_3 >= -1
+1 x_2_6_0 +0 x_2_6_1 +0 x_2_6_2 +0 x_2_6_3 +1 x_2_3_0_sb -1 x_2_3_1_sb +1 x_2_3_2_sb -1 x_2_3_3_sb +0 p0_2_3 +0 p1_2_3 >= -1
+0 x_2_6_0 -1 x_2_6_1 +0 x_2_6_2 -1 x_2_6_3 +1 x_2_3_0_sb -1 x_2_3_1_sb -1 x_2_3_2_sb -1 x_2_3_3_sb +0 p0_2_3 +0 p1_2_3 >= -4
+1 x_2_6_0 +0 x_2_6_1 +0 x_2_6_2 +1 x_2_6_3 +0 x_2_3_0_sb -1 x_2_3_1_sb -1 x_2_3_2_sb +1 x_2_3_3_sb +0 p0_2_3 -1 p1_2_3 >= -2
+0 x_2_6_0 +0 x_2_6_1 -1 x_2_6_2 +1 x_2_6_3 -1 x_2_3_0_sb +1 x_2_3_1_sb +0 x_2_3_2_sb -1 x_2_3_3_sb +0 p0_2_3 -1 p1_2_3 >= -3
+0 x_2_6_0 +1 x_2_6_1 +0 x_2_6_2 +1 x_2_6_3 -1 x_2_3_0_sb -1 x_2_3_1_sb +0 x_2_3_2_sb +1 x_2_3_3_sb +0 p0_2_3 -1 p1_2_3 >= -2
-1 x_2_6_0 +1 x_2_6_1 +0 x_2_6_2 -1 x_2_6_3 +0 x_2_3_0_sb +0 x_2_3_1_sb -1 x_2_3_2_sb +1 x_2_3_3_sb +0 p0_2_3 -1 p1_2_3 >= -3
-1 x_2_6_0 +0 x_2_6_1 +0 x_2_6_2 +0 x_2_6_3 -1 x_2_3_0_sb +1 x_2_3_1_sb +0 x_2_3_2_sb -1 x_2_3_3_sb +0 p0_2_3 -1 p1_2_3 >= -3
+0 x_2_6_0 +0 x_2_6_1 -1 x_2_6_2 +0 x_2_6_3 +1 x_2_3_0_sb +1 x_2_3_1_sb +0 x_2_3_2_sb +1 x_2_3_3_sb +0 p0_2_3 +0 p1_2_3 >= 0
+0 x_2_8_0 +0 x_2_8_1 +0 x_2_8_2 +0 x_2_8_3 +0 x_2_4_0_sb +0 x_2_4_1_sb +0 x_2_4_2_sb +0 x_2_4_3_sb -1 p0_2_4 -1 p1_2_4 >= -1
+0 x_2_8_0 +0 x_2_8_1 +0 x_2_8_2 +0 x_2_8_3 +0 x_2_4_0_sb +0 x_2_4_1_sb +0 x_2_4_2_sb -1 x_2_4_3_sb +1 p0_2_4 +1 p1_2_4 >= 0
+0 x_2_8_0 +0 x_2_8_1 +0 x_2_8_2 +0 x_2_8_3 +0 x_2_4_0_sb -1 x_2_4_1_sb +0 x_2_4_2_sb +0 x_2_4_3_sb +1 p0_2_4 +1 p1_2_4 >= 0
+0 x_2_8_0 +0 x_2_8_1 +0 x_2_8_2 +0 x_2_8_3 -1 x_2_4_0_sb +0 x_2_4_1_sb +0 x_2_4_2_sb +0 x_2_4_3_sb +1 p0_2_4 +1 p1_2_4 >= 0
+0 x_2_8_0 +0 x_2_8_1 +0 x_2_8_2 +0 x_2_8_3 +1 x_2_4_0_sb +1 x_2_4_1_sb +1 x_2_4_2_sb +1 x_2_4_3_sb +0 p0_2_4 -1 p1_2_4 >= 0
+0 x_2_8_0 +0 x_2_8_1 +0 x_2_8_2 -1 x_2_8_3 +1 x_2_4_0_sb +1 x_2_4_1_sb +0 x_2_4_2_sb +1 x_2_4_3_sb +0 p0_2_4 +1 p1_2_4 >= 0
-1 x_2_8_0 +0 x_2_8_1 -1 x_2_8_2 +0 x_2_8_3 +1 x_2_4_0_sb +0 x_2_4_1_sb +0 x_2_4_2_sb +1 x_2_4_3_sb +0 p0_2_4 -1 p1_2_4 >= -2
+1 x_2_8_0 +0 x_2_8_1 +1 x_2_8_2 +0 x_2_8_3 +1 x_2_4_0_sb +0 x_2_4_1_sb +1 x_2_4_2_sb +0 x_2_4_3_sb +0 p0_2_4 -1 p1_2_4 >= 0
+0 x_2_8_0 +0 x_2_8_1 +0 x_2_8_2 +1 x_2_8_3 +0 x_2_4_0_sb +1 x_2_4_1_sb -1 x_2_4_2_sb -1 x_2_4_3_sb +0 p0_2_4 -1 p1_2_4 >= -2
-1 x_2_8_0 +0 x_2_8_1 +0 x_2_8_2 -1 x_2_8_3 -1 x_2_4_0_sb +0 x_2_4_1_sb +0 x_2_4_2_sb +1 x_2_4_3_sb +0 p0_2_4 -1 p1_2_4 >= -3
+0 x_2_8_0 +0 x_2_8_1 +0 x_2_8_2 +1 x_2_8_3 -1 x_2_4_0_sb -1 x_2_4_1_sb -1 x_2_4_2_sb +0 x_2_4_3_sb +0 p0_2_4 -1 p1_2_4 >= -3
+1 x_2_8_0 +1 x_2_8_1 +0 x_2_8_2 +1 x_2_8_3 +0 x_2_4_0_sb +0 x_2_4_1_sb +0 x_2_4_2_sb +0 x_2_4_3_sb -1 p0_2_4 +0 p1_2_4 >= 0
+0 x_2_8_0 +0 x_2_8_1 +1 x_2_8_2 +1 x_2_8_3 +0 x_2_4_0_sb -1 x_2_4_1_sb +1 x_2_4_2_sb +0 x_2_4_3_sb +0 p0_2_4 -1 p1_2_4 >= -1
+0 x_2_8_0 +1 x_2_8_1 +0 x_2_8_2 -1 x_2_8_3 -1 x_2_4_0_sb +0 x_2_4_1_sb -1 x_2_4_2_sb +0 x_2_4_3_sb +0 p0_2_4 -1 p1_2_4 >= -3
+0 x_2_8_0 +1 x_2_8_1 +1 x_2_8_2 +0 x_2_8_3 +0 x_2_4_0_sb +0 x_2_4_1_sb +1 x_2_4_2_sb -1 x_2_4_3_sb +0 p0_2_4 -1 p1_2_4 >= -1
-1 x_2_8_0 +0 x_2_8_1 -1 x_2_8_2 +0 x_2_8_3 -1 x_2_4_0_sb +0 x_2_4_1_sb +1 x_2_4_2_sb +0 x_2_4_3_sb +0 p0_2_4 -1 p1_2_4 >= -3
+0 x_2_8_0 -1 x_2_8_1 -1 x_2_8_2 +0 x_2_8_3 +0 x_2_4_0_sb +1 x_2_4_1_sb +0 x_2_4_2_sb +1 x_2_4_3_sb +0 p0_2_4 -1 p1_2_4 >= -2
+0 x_2_8_0 -1 x_2_8_1 +0 x_2_8_2 +0 x_2_8_3 +1 x_2_4_0_sb +1 x_2_4_1_sb +0 x_2_4_2_sb +1 x_2_4_3_sb +0 p0_2_4 +1 p1_2_4 >= 0
-1 x_2_8_0 -1 x_2_8_1 +0 x_2_8_2 +1 x_2_8_3 +0 x_2_4_0_sb +1 x_2_4_1_sb +0 x_2_4_2_sb +1 x_2_4_3_sb +0 p0_2_4 -1 p1_2_4 >= -2
+0 x_2_8_0 -1 x_2_8_1 +0 x_2_8_2 +0 x_2_8_3 +1 x_2_4_0_sb +0 x_2_4_1_sb +1 x_2_4_2_sb +1 x_2_4_3_sb +0 p0_2_4 -1 p1_2_4 >= -1
-1 x_2_8_0 +0 x_2_8_1 -1 x_2_8_2 +0 x_2_8_3 +1 x_2_4_0_sb +1 x_2_4_1_sb +0 x_2_4_2_sb +0 x_2_4_3_sb +0 p0_2_4 -1 p1_2_4 >= -2
+0 x_2_8_0 +1 x_2_8_1 -1 x_2_8_2 -1 x_2_8_3 +0 x_2_4_0_sb +0 x_2_4_1_sb +0 x_2_4_2_sb +1 x_2_4_3_sb +0 p0_2_4 -1 p1_2_4 >= -2
-1 x_2_8_0 -1 x_2_8_1 +0 x_2_8_2 -1 x_2_8_3 +0 x_2_4_0_sb +1 x_2_4_1_sb +0 x_2_4_2_sb -1 x_2_4_3_sb +0 p0_2_4 -1 p1_2_4 >= -4
-1 x_2_8_0 +1 x_2_8_1 +0 x_2_8_2 +1 x_2_8_3 +0 x_2_4_0_sb +1 x_2_4_1_sb +0 x_2_4_2_sb +1 x_2_4_3_sb +0 p0_2_4 +1 p1_2_4 >= 0
+0 x_2_8_0 +0 x_2_8_1 +0 x_2_8_2 +0 x_2_8_3 +1 x_2_4_0_sb -1 x_2_4_1_sb +0 x_2_4_2_sb -1 x_2_4_3_sb +0 p0_2_4 +1 p1_2_4 >= -1
+1 x_2_8_0 +0 x_2_8_1 +1 x_2_8_2 +0 x_2_8_3 +1 x_2_4_0_sb -1 x_2_4_1_sb +0 x_2_4_2_sb +0 x_2_4_3_sb +0 p0_2_4 -1 p1_2_4 >= -1
+0 x_2_8_0 +1 x_2_8_1 +0 x_2_8_2 +1 x_2_8_3 +0 x_2_4_0_sb -1 x_2_4_1_sb -1 x_2_4_2_sb +0 x_2_4_3_sb +0 p0_2_4 -1 p1_2_4 >= -2
+1 x_2_8_0 -1 x_2_8_1 +0 x_2_8_2 -1 x_2_8_3 +0 x_2_4_0_sb +0 x_2_4_1_sb +1 x_2_4_2_sb +0 x_2_4_3_sb +0 p0_2_4 +0 p1_2_4 >= -1
+1 x_2_8_0 -1 x_2_8_1 -1 x_2_8_2 +0 x_2_8_3 +0 x_2_4_0_sb +0 x_2_4_1_sb +1 x_2_4_2_sb -1 x_2_4_3_sb +0 p0_2_4 -1 p1_2_4 >= -3
+1 x_2_8_0 -1 x_2_8_1 +0 x_2_8_2 -1 x_2_8_3 +0 x_2_4_0_sb +0 x_2_4_1_sb +0 x_2_4_2_sb +0 x_2_4_3_sb +0 p0_2_4 +1 p1_2_4 >= -1
+1 x_2_8_0 +0 x_2_8_1 +0 x_2_8_2 +0 x_2_8_3 -1 x_2_4_0_sb +1 x_2_4_1_sb +0 x_2_4_2_sb -1 x_2_4_3_sb +0 p0_2_4 +1 p1_2_4 >= -1
+1 x_2_8_0 +0 x_2_8_1 +0 x_2_8_2 +0 x_2_8_3 -1 x_2_4_0_sb -1 x_2_4_1_sb +0 x_2_4_2_sb +1 x_2_4_3_sb +0 p0_2_4 +1 p1_2_4 >= -1
-1 x_2_8_0 -1 x_2_8_1 +0 x_2_8_2 +1 x_2_8_3 +1 x_2_4_0_sb +0 x_2_4_1_sb +0 x_2_4_2_sb +0 x_2_4_3_sb +0 p0_2_4 +1 p1_2_4 >= -1
-1 x_2_8_0 +1 x_2_8_1 +0 x_2_8_2 -1 x_2_8_3 +1 x_2_4_0_sb +0 x_2_4_1_sb +0 x_2_4_2_sb +0 x_2_4_3_sb +0 p0_2_4 +1 p1_2_4 >= -1
+0 x_2_8_0 -1 x_2_8_1 +0 x_2_8_2 -1 x_2_8_3 +0 x_2_4_0_sb -1 x_2_4_1_sb +0 x_2_4_2_sb -1 x_2_4_3_sb +0 p0_2_4 +1 p1_2_4 >= -3
+1 x_2_8_0 +1 x_2_8_1 +0 x_2_8_2 +1 x_2_8_3 +0 x_2_4_0_sb +0 x_2_4_1_sb -1 x_2_4_2_sb +0 x_2_4_3_sb +0 p0_2_4 +0 p1_2_4 >= 0
-1 x_2_8_0 +0 x_2_8_1 +1 x_2_8_2 -1 x_2_8_3 +0 x_2_4_0_sb -1 x_2_4_1_sb -1 x_2_4_2_sb +0 x_2_4_3_sb +0 p0_2_4 -1 p1_2_4 >= -4
+1 x_2_8_0 +1 x_2_8_1 +0 x_2_8_2 -1 x_2_8_3 +1 x_2_4_0_sb +1 x_2_4_1_sb +0 x_2_4_2_sb -1 x_2_4_3_sb +0 p0_2_4 -1 p1_2_4 >= -2
+1 x_2_8_0 +0 x_2_8_1 +1 x_2_8_2 +0 x_2_8_3 +0 x_2_4_0_sb +1 x_2_4_1_sb +1 x_2_4_2_sb +1 x_2_4_3_sb +0 p0_2_4 -1 p1_2_4 >= 0
+1 x_2_8_0 +0 x_2_8_1 -1 x_2_8_2 -1 x_2_8_3 -1 x_2_4_0_sb -1 x_2_4_1_sb +0 x_2_4_2_sb -1 x_2_4_3_sb +0 p0_2_4 -1 p1_2_4 >= -5
+0 x_2_8_0 +0 x_2_8_1 +1 x_2_8_2 +1 x_2_8_3 -1 x_2_4_0_sb +0 x_2_4_1_sb -1 x_2_4_2_sb +0 x_2_4_3_sb +0 p0_2_4 -1 p1_2_4 >= -2
+0 x_2_8_0 +0 x_2_8_1 +1 x_2_8_2 +0 x_2_8_3 +1 x_2_4_0_sb -1 x_2_4_1_sb +0 x_2_4_2_sb -1 x_2_4_3_sb +0 p0_2_4 +0 p1_2_4 >= -1
+0 x_2_8_0 -1 x_2_8_1 +0 x_2_8_2 -1 x_2_8_3 +0 x_2_4_0_sb +1 x_2_4_1_sb +0 x_2_4_2_sb +1 x_2_4_3_sb +0 p0_2_4 +1 p1_2_4 >= -1
+0 x_2_8_0 +1 x_2_8_1 +0 x_2_8_2 +1 x_2_8_3 +0 x_2_4_0_sb -1 x_2_4_1_sb +0 x_2_4_2_sb -1 x_2_4_3_sb +0 p0_2_4 +1 p1_2_4 >= -1
+1 x_2_8_0 -1 x_2_8_1 +1 x_2_8_2 -1 x_2_8_3 +1 x_2_4_0_sb +0 x_2_4_1_sb +0 x_2_4_2_sb +0 x_2_4_3_sb +0 p0_2_4 +0 p1_2_4 >= -1
+1 x_2_8_0 +0 x_2_8_1 +0 x_2_8_2 +0 x_2_8_3 +1 x_2_4_0_sb -1 x_2_4_1_sb +1 x_2_4_2_sb -1 x_2_4_3_sb +0 p0_2_4 +0 p1_2_4 >= -1
+0 x_2_8_0 -1 x_2_8_1 +0 x_2_8_2 -1 x_2_8_3 +1 x_2_4_0_sb -1 x_2_4_1_sb -1 x_2_4_2_sb -1 x_2_4_3_sb +0 p0_2_4 +0 p1_2_4 >= -4
+1 x_2_8_0 +0 x_2_8_1 +0 x_2_8_2 +1 x_2_8_3 +0 x_2_4_0_sb -1 x_2_4_1_sb -1 x_2_4_2_sb +1 x_2_4_3_sb +0 p0_2_4 -1 p1_2_4 >= -2
+0 x_2_8_0 +0 x_2_8_1 -1 x_2_8_2 +1 x_2_8_3 -1 x_2_4_0_sb +1 x_2_4_1_sb +0 x_2_4_2_sb -1 x_2_4_3_sb +0 p0_2_4 -1 p1_2_4 >= -3
+0 x_2_8_0 +1 x_2_8_1 +0 x_2_8_2 +1 x_2_8_3 -1 x_2_4_0_sb -1 x_2_4_1_sb +0 x_2_4_2_sb +1 x_2_4_3_sb +0 p0_2_4 -1 p1_2_4 >= -2
-1 x_2_8_0 +1 x_2_8_1 +0 x_2_8_2 -1 x_2_8_3 +0 x_2_4_0_sb +0 x_2_4_1_sb -1 x_2_4_2_sb +1 x_2_4_3_sb +0 p0_2_4 -1 p1_2_4 >= -3
-1 x_2_8_0 +0 x_2_8_1 +0 x_2_8_2 +0 x_2_8_3 -1 x_2_4_0_sb +1 x_2_4_1_sb +0 x_2_4_2_sb -1 x_2_4_3_sb +0 p0_2_4 -1 p1_2_4 >= -3
+0 x_2_8_0 +0 x_2_8_1 -1 x_2_8_2 +0 x_2_8_3 +1 x_2_4_0_sb +1 x_2_4_1_sb +0 x_2_4_2_sb +1 x_2_4_3_sb +0 p0_2_4 +0 p1_2_4 >= 0
+0 x_2_10_0 +0 x_2_10_1 +0 x_2_10_2 +0 x_2_10_3 +0 x_2_5_0_sb +0 x_2_5_1_sb +0 x_2_5_2_sb +0 x_2_5_3_sb -1 p0_2_5 -1 p1_2_5 >= -1
+0 x_2_10_0 +0 x_2_10_1 +0 x_2_10_2 +0 x_2_10_3 +0 x_2_5_0_sb +0 x_2_5_1_sb +0 x_2_5_2_sb -1 x_2_5_3_sb +1 p0_2_5 +1 p1_2_5 >= 0
+0 x_2_10_0 +0 x_2_10_1 +0 x_2_10_2 +0 x_2_10_3 +0 x_2_5_0_sb -1 x_2_5_1_sb +0 x_2_5_2_sb +0 x_2_5_3_sb +1 p0_2_5 +1 p1_2_5 >= 0
+0 x_2_10_0 +0 x_2_10_1 +0 x_2_10_2 +0 x_2_10_3 -1 x_2_5_0_sb +0 x_2_5_1_sb +0 x_2_5_2_sb +0 x_2_5_3_sb +1 p0_2_5 +1 p1_2_5 >= 0
+0 x_2_10_0 +0 x_2_10_1 +0 x_2_10_2 +0 x_2_10_3 +1 x_2_5_0_sb +1 x_2_5_1_sb +1 x_2_5_2_sb +1 x_2_5_3_sb +0 p0_2_5 -1 p1_2_5 >= 0
+0 x_2_10_0 +0 x_2_10_1 +0 x_2_10_2 -1 x_2_10_3 +1 x_2_5_0_sb +1 x_2_5_1_sb +0 x_2_5_2_sb +1 x_2_5_3_sb +0 p0_2_5 +1 p1_2_5 >= 0
-1 x_2_10_0 +0 x_2_10_1 -1 x_2_10_2 +0 x_2_10_3 +1 x_2_5_0_sb +0 x_2_5_1_sb +0 x_2_5_2_sb +1 x_2_5_3_sb +0 p0_2_5 -1 p1_2_5 >= -2
+1 x_2_10_0 +0 x_2_10_1 +1 x_2_10_2 +0 x_2_10_3 +1 x_2_5_0_sb +0 x_2_5_1_sb +1 x_2_5_2_sb +0 x_2_5_3_sb +0 p0_2_5 -1 p1_2_5 >= 0
+0 x_2_10_0 +0 x_2_10_1 +0 x_2_10_2 +1 x_2_10_3 +0 x_2_5_0_sb +1 x_2_5_1_sb -1 x_2_5_2_sb -1 x_2_5_3_sb +0 p0_2_5 -1 p1_2_5 >= -2
-1 x_2_10_0 +0 x_2_10_1 +0 x_2_10_2 -1 x_2_10_3 -1 x_2_5_0_sb +0 x_2_5_1_sb +0 x_2_5_2_sb +1 x_2_5_3_sb +0 p0_2_5 -1 p1_2_5 >= -3
+0 x_2_10_0 +0 x_2_10_1 +0 x_2_10_2 +1 x_2_10_3 -1 x_2_5_0_sb -1 x_2_5_1_sb -1 x_2_5_2_sb +0 x_2_5_3_sb +0 p0_2_5 -1 p1_2_5 >= -3
+1 x_2_10_0 +1 x_2_10_1 +0 x_2_10_2 +1 x_2_10_3 +0 x_2_5_0_sb +0 x_2_5_1_sb +0 x_2_5_2_sb +0 x_2_5_3_sb -1 p0_2_5 +0 p1_2_5 >= 0
+0 x_2_10_0 +0 x_2_10_1 +1 x_2_10_2 +1 x_2_10_3 +0 x_2_5_0_sb -1 x_2_5_1_sb +1 x_2_5_2_sb +0 x_2_5_3_sb +0 p0_2_5 -1 p1_2_5 >= -1
+0 x_2_10_0 +1 x_2_10_1 +0 x_2_10_2 -1 x_2_10_3 -1 x_2_5_0_sb +0 x_2_5_1_sb -1 x_2_5_2_sb +0 x_2_5_3_sb +0 p0_2_5 -1 p1_2_5 >= -3
+0 x_2_10_0 +1 x_2_10_1 +1 x_2_10_2 +0 x_2_10_3 +0 x_2_5_0_sb +0 x_2_5_1_sb +1 x_2_5_2_sb -1 x_2_5_3_sb +0 p0_2_5 -1 p1_2_5 >= -1
-1 x_2_10_0 +0 x_2_10_1 -1 x_2_10_2 +0 x_2_10_3 -1 x_2_5_0_sb +0 x_2_5_1_sb +1 x_2_5_2_sb +0 x_2_5_3_sb +0 p0_2_5 -1 p1_2_5 >= -3
+0 x_2_10_0 -1 x_2_10_1 -1 x_2_10_2 +0 x_2_10_3 +0 x_2_5_0_sb +1 x_2_5_1_sb +0 x_2_5_2_sb +1 x_2_5_3_sb +0 p0_2_5 -1 p1_2_5 >= -2
+0 x_2_10_0 -1 x_2_10_1 +0 x_2_10_2 +0 x_2_10_3 +1 x_2_5_0_sb +1 x_2_5_1_sb +0 x_2_5_2_sb +1 x_2_5_3_sb +0 p0_2_5 +1 p1_2_5 >= 0
-1 x_2_10_0 -1 x_2_10_1 +0 x_2_10_2 +1 x_2_10_3 +0 x_2_5_0_sb +1 x_2_5_1_sb +0 x_2_5_2_sb +1 x_2_5_3_sb +0 p0_2_5 -1 p1_2_5 >= -2
+0 x_2_10_0 -1 x_2_10_1 +0 x_2_10_2 +0 x_2_10_3 +1 x_2_5_0_sb +0 x_2_5_1_sb +1 x_2_5_2_sb +1 x_2_5_3_sb +0 p0_2_5 -1 p1_2_5 >= -1
-1 x_2_10_0 +0 x_2_10_1 -1 x_2_10_2 +0 x_2_10_3 +1 x_2_5_0_sb +1 x_2_5_1_sb +0 x_2_5_2_sb +0 x_2_5_3_sb +0 p0_2_5 -1 p1_2_5 >= -2
+0 x_2_10_0 +1 x_2_10_1 -1 x_2_10_2 -1 x_2_10_3 +0 x_2_5_0_sb +0 x_2_5_1_sb +0 x_2_5_2_sb +1 x_2_5_3_sb +0 p0_2_5 -1 p1_2_5 >= -2
-1 x_2_10_0 -1 x_2_10_1 +0 x_2_10_2 -1 x_2_10_3 +0 x_2_5_0_sb +1 x_2_5_1_sb +0 x_2_5_2_sb -1 x_2_5_3_sb +0 p0_2_5 -1 p1_2_5 >= -4
-1 x_2_10_0 +1 x_2_10_1 +0 x_2_10_2 +1 x_2_10_3 +0 x_2_5_0_sb +1 x_2_5_1_sb +0 x_2_5_2_sb +1 x_2_5_3_sb +0 p0_2_5 +1 p1_2_5 >= 0
+0 x_2_10_0 +0 x_2_10_1 +0 x_2_10_2 +0 x_2_10_3 +1 x_2_5_0_sb -1 x_2_5_1_sb +0 x_2_5_2_sb -1 x_2_5_3_sb +0 p0_2_5 +1 p1_2_5 >= -1
+1 x_2_10_0 +0 x_2_10_1 +1 x_2_10_2 +0 x_2_10_3 +1 x_2_5_0_sb -1 x_2_5_1_sb +0 x_2_5_2_sb +0 x_2_5_3_sb +0 p0_2_5 -1 p1_2_5 >= -1
+0 x_2_10_0 +1 x_2_10_1 +0 x_2_10_2 +1 x_2_10_3 +0 x_2_5_0_sb -1 x_2_5_1_sb -1 x_2_5_2_sb +0 x_2_5_3_sb +0 p0_2_5 -1 p1_2_5 >= -2
+1 x_2_10_0 -1 x_2_10_1 +0 x_2_10_2 -1 x_2_10_3 +0 x_2_5_0_sb +0 x_2_5_1_sb +1 x_2_5_2_sb +0 x_2_5_3_sb +0 p0_2_5 +0 p1_2_5 >= -1
+1 x_2_10_0 -1 x_2_10_1 -1 x_2_10_2 +0 x_2_10_3 +0 x_2_5_0_sb +0 x_2_5_1_sb +1 x_2_5_2_sb -1 x_2_5_3_sb +0 p0_2_5 -1 p1_2_5 >= -3
+1 x_2_10_0 -1 x_2_10_1 +0 x_2_10_2 -1 x_2_10_3 +0 x_2_5_0_sb +0 x_2_5_1_sb +0 x_2_5_2_sb +0 x_2_5_3_sb +0 p0_2_5 +1 p1_2_5 >= -1
+1 x_2_10_0 +0 x_2_10_1 +0 x_2_10_2 +0 x_2_10_3 -1 x_2_5_0_sb +1 x_2_5_1_sb +0 x_2_5_2_sb -1 x_2_5_3_sb +0 p0_2_5 +1 p1_2_5 >= -1
+1 x_2_10_0 +0 x_2_10_1 +0 x_2_10_2 +0 x_2_10_3 -1 x_2_5_0_sb -1 x_2_5_1_sb +0 x_2_5_2_sb +1 x_2_5_3_sb +0 p0_2_5 +1 p1_2_5 >= -1
-1 x_2_10_0 -1 x_2_10_1 +0 x_2_10_2 +1 x_2_10_3 +1 x_2_5_0_sb +0 x_2_5_1_sb +0 x_2_5_2_sb +0 x_2_5_3_sb +0 p0_2_5 +1 p1_2_5 >= -1
-1 x_2_10_0 +1 x_2_10_1 +0 x_2_10_2 -1 x_2_10_3 +1 x_2_5_0_sb +0 x_2_5_1_sb +0 x_2_5_2_sb +0 x_2_5_3_sb +0 p0_2_5 +1 p1_2_5 >= -1
+0 x_2_10_0 -1 x_2_10_1 +0 x_2_10_2 -1 x_2_10_3 +0 x_2_5_0_sb -1 x_2_5_1_sb +0 x_2_5_2_sb -1 x_2_5_3_sb +0 p0_2_5 +1 p1_2_5 >= -3
+1 x_2_10_0 +1 x_2_10_1 +0 x_2_10_2 +1 x_2_10_3 +0 x_2_5_0_sb +0 x_2_5_1_sb -1 x_2_5_2_sb +0 x_2_5_3_sb +0 p0_2_5 +0 p1_2_5 >= 0
-1 x_2_10_0 +0 x_2_10_1 +1 x_2_10_2 -1 x_2_10_3 +0 x_2_5_0_sb -1 x_2_5_1_sb -1 x_2_5_2_sb +0 x_2_5_3_sb +0 p0_2_5 -1 p1_2_5 >= -4
+1 x_2_10_0 +1 x_2_10_1 +0 x_2_10_2 -1 x_2_10_3 +1 x_2_5_0_sb +1 x_2_5_1_sb +0 x_2_5_2_sb -1 x_2_5_3_sb +0 p0_2_5 -1 p1_2_5 >= -2
+1 x_2_10_0 +0 x_2_10_1 +1 x_2_10_2 +0 x_2_10_3 +0 x_2_5_0_sb +1 x_2_5_1_sb +1 x_2_5_2_sb +1 x_2_5_3_sb +0 p0_2_5 -1 p1_2_5 >= 0
+1 x_2_10_0 +0 x_2_10_1 -1 x_2_10_2 -1 x_2_10_3 -1 x_2_5_0_sb -1 x_2_5_1_sb +0 x_2_5_2_sb -1 x_2_5_3_sb +0 p0_2_5 -1 p1_2_5 >= -5
+0 x_2_10_0 +0 x_2_10_1 +1 x_2_10_2 +1 x_2_10_3 -1 x_2_5_0_sb +0 x_2_5_1_sb -1 x_2_5_2_sb +0 x_2_5_3_sb +0 p0_2_5 -1 p1_2_5 >= -2
+0 x_2_10_0 +0 x_2_10_1 +1 x_2_10_2 +0 x_2_10_3 +1 x_2_5_0_sb -1 x_2_5_1_sb +0 x_2_5_2_sb -1 x_2_5_3_sb +0 p0_2_5 +0 p1_2_5 >= -1
+0 x_2_10_0 -1 x_2_10_1 +0 x_2_10_2 -1 x_2_10_3 +0 x_2_5_0_sb +1 x_2_5_1_sb +0 x_2_5_2_sb +1 x_2_5_3_sb +0 p0_2_5 +1 p1_2_5 >= -1
+0 x_2_10_0 +1 x_2_10_1 +0 x_2_10_2 +1 x_2_10_3 +0 x_2_5_0_sb -1 x_2_5_1_sb +0 x_2_5_2_sb -1 x_2_5_3_sb +0 p0_2_5 +1 p1_2_5 >= -1
+1 x_2_10_0 -1 x_2_10_1 +1 x_2_10_2 -1 x_2_10_3 +1 x_2_5_0_sb +0 x_2_5_1_sb +0 x_2_5_2_sb +0 x_2_5_3_sb +0 p0_2_5 +0 p1_2_5 >= -1
+1 x_2_10_0 +0 x_2_10_1 +0 x_2_10_2 +0 x_2_10_3 +1 x_2_5_0_sb -1 x_2_5_1_sb +1 x_2_5_2_sb -1 x_2_5_3_sb +0 p0_2_5 +0 p1_2_5 >= -1
+0 x_2_10_0 -1 x_2_10_1 +0 x_2_10_2 -1 x_2_10_3 +1 x_2_5_0_sb -1 x_2_5_1_sb -1 x_2_5_2_sb -1 x_2_5_3_sb +0 p0_2_5 +0 p1_2_5 >= -4
+1 x_2_10_0 +0 x_2_10_1 +0 x_2_10_2 +1 x_2_10_3 +0 x_2_5_0_sb -1 x_2_5_1_sb -1 x_2_5_2_sb +1 x_2_5_3_sb +0 p0_2_5 -1 p1_2_5 >= -2
+0 x_2_10_0 +0 x_2_10_1 -1 x_2_10_2 +1 x_2_10_3 -1 x_2_5_0_sb +1 x_2_5_1_sb +0 x_2_5_2_sb -1 x_2_5_3_sb +0 p0_2_5 -1 p1_2_5 >= -3
+0 x_2_10_0 +1 x_2_10_1 +0 x_2_10_2 +1 x_2_10_3 -1 x_2_5_0_sb -1 x_2_5_1_sb +0 x_2_5_2_sb +1 x_2_5_3_sb +0 p0_2_5 -1 p1_2_5 >= -2
-1 x_2_10_0 +1 x_2_10_1 +0 x_2_10_2 -1 x_2_10_3 +0 x_2_5_0_sb +0 x_2_5_1_sb -1 x_2_5_2_sb +1 x_2_5_3_sb +0 p0_2_5 -1 p1_2_5 >= -3
-1 x_2_10_0 +0 x_2_10_1 +0 x_2_10_2 +0 x_2_10_3 -1 x_2_5_0_sb +1 x_2_5_1_sb +0 x_2_5_2_sb -1 x_2_5_3_sb +0 p0_2_5 -1 p1_2_5 >= -3
+0 x_2_10_0 +0 x_2_10_1 -1 x_2_10_2 +0 x_2_10_3 +1 x_2_5_0_sb +1 x_2_5_1_sb +0 x_2_5_2_sb +1 x_2_5_3_sb +0 p0_2_5 +0 p1_2_5 >= 0
+0 x_2_12_0 +0 x_2_12_1 +0 x_2_12_2 +0 x_2_12_3 +0 x_2_6_0_sb +0 x_2_6_1_sb +0 x_2_6_2_sb +0 x_2_6_3_sb -1 p0_2_6 -1 p1_2_6 >= -1
+0 x_2_12_0 +0 x_2_12_1 +0 x_2_12_2 +0 x_2_12_3 +0 x_2_6_0_sb +0 x_2_6_1_sb +0 x_2_6_2_sb -1 x_2_6_3_sb +1 p0_2_6 +1 p1_2_6 >= 0
+0 x_2_12_0 +0 x_2_12_1 +0 x_2_12_2 +0 x_2_12_3 +0 x_2_6_0_sb -1 x_2_6_1_sb +0 x_2_6_2_sb +0 x_2_6_3_sb +1 p0_2_6 +1 p1_2_6 >= 0
+0 x_2_12_0 +0 x_2_12_1 +0 x_2_12_2 +0 x_2_12_3 -1 x_2_6_0_sb +0 x_2_6_1_sb +0 x_2_6_2_sb +0 x_2_6_3_sb +1 p0_2_6 +1 p1_2_6 >= 0
+0 x_2_12_0 +0 x_2_12_1 +0 x_2_12_2 +0 x_2_12_3 +1 x_2_6_0_sb +1 x_2_6_1_sb +1 x_2_6_2_sb +1 x_2_6_3_sb +0 p0_2_6 -1 p1_2_6 >= 0
+0 x_2_12_0 +0 x_2_12_1 +0 x_2_12_2 -1 x_2_12_3 +1 x_2_6_0_sb +1 x_2_6_1_sb +0 x_2_6_2_sb +1 x_2_6_3_sb +0 p0_2_6 +1 p1_2_6 >= 0
-1 x_2_12_0 +0 x_2_12_1 -1 x_2_12_2 +0 x_2_12_3 +1 x_2_6_0_sb +0 x_2_6_1_sb +0 x_2_6_2_sb +1 x_2_6_3_sb +0 p0_2_6 -1 p1_2_6 >= -2
+1 x_2_12_0 +0 x_2_12_1 +1 x_2_12_2 +0 x_2_12_3 +1 x_2_6_0_sb +0 x_2_6_1_sb +1 x_2_6_2_sb +0 x_2_6_3_sb +0 p0_2_6 -1 p1_2_6 >= 0
+0 x_2_12_0 +0 x_2_12_1 +0 x_2_12_2 +1 x_2_12_3 +0 x_2_6_0_sb +1 x_2_6_1_sb -1 x_2_6_2_sb -1 x_2_6_3_sb +0 p0_2_6 -1 p1_2_6 >= -2
-1 x_2_12_0 +0 x_2_12_1 +0 x_2_12_2 -1 x_2_12_3 -1 x_2_6_0_sb +0 x_2_6_1_sb +0 x_2_6_2_sb +1 x_2_6_3_sb +0 p0_2_6 -1 p1_2_6 >= -3
+0 x_2_12_0 +0 x_2_12_1 +0 x_2_12_2 +1 x_2_12_3 -1 x_2_6_0_sb -1 x_2_6_1_sb -1 x_2_6_2_sb +0 x_2_6_3_sb +0 p0_2_6 -1 p1_2_6 >= -3
+1 x_2_12_0 +1 x_2_12_1 +0 x_2_12_2 +1 x_2_12_3 +0 x_2_6_0_sb +0 x_2_6_1_sb +0 x_2_6_2_sb +0 x_2_6_3_sb -1 p0_2_6 +0 p1_2_6 >= 0
+0 x_2_12_0 +0 x_2_12_1 +1 x_2_12_2 +1 x_2_12_3 +0 x_2_6_0_sb -1 x_2_6_1_sb +1 x_2_6_2_sb +0 x_2_6_3_sb +0 p0_2_6 -1 p1_2_6 >= -1
+0 x_2_12_0 +1 x_2_12_1 +0 x_2_12_2 -1 x_2_12_3 -1 x_2_6_0_sb +0 x_2_6_1_sb -1 x_2_6_2_sb +0 x_2_6_3_sb +0 p0_2_6 -1 p1_2_6 >= -3
+0 x_2_12_0 +1 x_2_12_1 +1 x_2_12_2 +0 x_2_12_3 +0 x_2_6_0_sb +0 x_2_6_1_sb +1 x_2_6_2_sb -1 x_2_6_3_sb +0 p0_2_6 -1 p1_2_6 >= -1
-1 x_2_12_0 +0 x_2_12_1 -1 x_2_12_2 +0 x_2_12_3 -1 x_2_6_0_sb +0 x_2_6_1_sb +1 x_2_6_2_sb +0 x_2_6_3_sb +0 p0_2_6 -1 p1_2_6 >= -3
+0 x_2_12_0 -1 x_2_12_1 -1 x_2_12_2 +0 x_2_12_3 +0 x_2_6_0_sb +1 x_2_6_1_sb +0 x_2_6_2_sb +1 x_2_6_3_sb +0 p0_2_6 -1 p1_2_6 >= -2
+0 x_2_12_0 -1 x_2_12_1 +0 x_2_12_2 +0 x_2_12_3 +1 x_2_6_0_sb +1 x_2_6_1_sb +0 x_2_6_2_sb +1 x_2_6_3_sb +0 p0_2_6 +1 p1_2_6 >= 0
-1 x_2_12_0 -1 x_2_12_1 +0 x_2_12_2 +1 x_2_12_3 +0 x_2_6_0_sb +1 x_2_6_1_sb +0 x_2_6_2_sb +1 x_2_6_3_sb +0 p0_2_6 -1 p1_2_6 >= -2
+0 x_2_12_0 -1 x_2_12_1 +0 x_2_12_2 +0 x_2_12_3 +1 x_2_6_0_sb +0 x_2_6_1_sb +1 x_2_6_2_sb +1 x_2_6_3_sb +0 p0_2_6 -1 p1_2_6 >= -1
-1 x_2_12_0 +0 x_2_12_1 -1 x_2_12_2 +0 x_2_12_3 +1 x_2_6_0_sb +1 x_2_6_1_sb +0 x_2_6_2_sb +0 x_2_6_3_sb +0 p0_2_6 -1 p1_2_6 >= -2
+0 x_2_12_0 +1 x_2_12_1 -1 x_2_12_2 -1 x_2_12_3 +0 x_2_6_0_sb +0 x_2_6_1_sb +0 x_2_6_2_sb +1 x_2_6_3_sb +0 p0_2_6 -1 p1_2_6 >= -2
-1 x_2_12_0 -1 x_2_12_1 +0 x_2_12_2 -1 x_2_12_3 +0 x_2_6_0_sb +1 x_2_6_1_sb +0 x_2_6_2_sb -1 x_2_6_3_sb +0 p0_2_6 -1 p1_2_6 >= -4
-1 x_2_12_0 +1 x_2_12_1 +0 x_2_12_2 +1 x_2_12_3 +0 x_2_6_0_sb +1 x_2_6_1_sb +0 x_2_6_2_sb +1 x_2_6_3_sb +0 p0_2_6 +1 p1_2_6 >= 0
+0 x_2_12_0 +0 x_2_12_1 +0 x_2_12_2 +0 x_2_12_3 +1 x_2_6_0_sb -1 x_2_6_1_sb +0 x_2_6_2_sb -1 x_2_6_3_sb +0 p0_2_6 +1 p1_2_6 >= -1
+1 x_2_12_0 +0 x_2_12_1 +1 x_2_12_2 +0 x_2_12_3 +1 x_2_6_0_sb -1 x_2_6_1_sb +0 x_2_6_2_sb +0 x_2_6_3_sb +0 p0_2_6 -1 p1_2_6 >= -1
+0 x_2_12_0 +1 x_2_12_1 +0 x_2_12_2 +1 x_2_12_3 +0 x_2_6_0_sb -1 x_2_6_1_sb -1 x_2_6_2_sb +0 x_2_6_3_sb +0 p0_2_6 -1 p1_2_6 >= -2
+1 x_2_12_0 -1 x_2_12_1 +0 x_2_12_2 -1 x_2_12_3 +0 x_2_6_0_sb +0 x_2_6_1_sb +1 x_2_6_2_sb +0 x_2_6_3_sb +0 p0_2_6 +0 p1_2_6 >= -1
+1 x_2_12_0 -1 x_2_12_1 -1 x_2_12_2 +0 x_2_12_3 +0 x_2_6_0_sb +0 x_2_6_1_sb +1 x_2_6_2_sb -1 x_2_6_3_sb +0 p0_2_6 -1 p1_2_6 >= -3
+1 x_2_12_0 -1 x_2_12_1 +0 x_2_12_2 -1 x_2_12_3 +0 x_2_6_0_sb +0 x_2_6_1_sb +0 x_2_6_2_sb +0 x_2_6_3_sb +0 p0_2_6 +1 p1_2_6 >= -1
+1 x_2_12_0 +0 x_2_12_1 +0 x_2_12_2 +0 x_2_12_3 -1 x_2_6_0_sb +1 x_2_6_1_sb +0 x_2_6_2_sb -1 x_2_6_3_sb +0 p0_2_6 +1 p1_2_6 >= -1
+1 x_2_12_0 +0 x_2_12_1 +0 x_2_12_2 +0 x_2_12_3 -1 x_2_6_0_sb -1 x_2_6_1_sb +0 x_2_6_2_sb +1 x_2_6_3_sb +0 p0_2_6 +1 p1_2_6 >= -1
-1 x_2_12_0 -1 x_2_12_1 +0 x_2_12_2 +1 x_2_12_3 +1 x_2_6_0_sb +0 x_2_6_1_sb +0 x_2_6_2_sb +0 x_2_6_3_sb +0 p0_2_6 +1 p1_2_6 >= -1
-1 x_2_12_0 +1 x_2_12_1 +0 x_2_12_2 -1 x_2_12_3 +1 x_2_6_0_sb +0 x_2_6_1_sb +0 x_2_6_2_sb +0 x_2_6_3_sb +0 p0_2_6 +1 p1_2_6 >= -1
+0 x_2_12_0 -1 x_2_12_1 +0 x_2_12_2 -1 x_2_12_3 +0 x_2_6_0_sb -1 x_2_6_1_sb +0 x_2_6_2_sb -1 x_2_6_3_sb +0 p0_2_6 +1 p1_2_6 >= -3
+1 x_2_12_0 +1 x_2_12_1 +0 x_2_12_2 +1 x_2_12_3 +0 x_2_6_0_sb +0 x_2_6_1_sb -1 x_2_6_2_sb +0 x_2_6_3_sb +0 p0_2_6 +0 p1_2_6 >= 0
-1 x_2_12_0 +0 x_2_12_1 +1 x_2_12_2 -1 x_2_12_3 +0 x_2_6_0_sb -1 x_2_6_1_sb -1 x_2_6_2_sb +0 x_2_6_3_sb +0 p0_2_6 -1 p1_2_6 >= -4
+1 x_2_12_0 +1 x_2_12_1 +0 x_2_12_2 -1 x_2_12_3 +1 x_2_6_0_sb +1 x_2_6_1_sb +0 x_2_6_2_sb -1 x_2_6_3_sb +0 p0_2_6 -1 p1_2_6 >= -2
+1 x_2_12_0 +0 x_2_12_1 +1 x_2_12_2 +0 x_2_12_3 +0 x_2_6_0_sb +1 x_2_6_1_sb +1 x_2_6_2_sb +1 x_2_6_3_sb +0 p0_2_6 -1 p1_2_6 >= 0
+1 x_2_12_0 +0 x_2_12_1 -1 x_2_12_2 -1 x_2_12_3 -1 x_2_6_0_sb -1 x_2_6_1_sb +0 x_2_6_2_sb -1 x_2_6_3_sb +0 p0_2_6 -1 p1_2_6 >= -5
+0 x_2_12_0 +0 x_2_12_1 +1 x_2_12_2 +1 x_2_12_3 -1 x_2_6_0_sb +0 x_2_6_1_sb -1 x_2_6_2_sb +0 x_2_6_3_sb +0 p0_2_6 -1 p1_2_6 >= -2
+0 x_2_12_0 +0 x_2_12_1 +1 x_2_12_2 +0 x_2_12_3 +1 x_2_6_0_sb -1 x_2_6_1_sb +0 x_2_6_2_sb -1 x_2_6_3_sb +0 p0_2_6 +0 p1_2_6 >= -1
+0 x_2_12_0 -1 x_2_12_1 +0 x_2_12_2 -1 x_2_12_3 +0 x_2_6_0_sb +1 x_2_6_1_sb +0 x_2_6_2_sb +1 x_2_6_3_sb +0 p0_2_6 +1 p1_2_6 >= -1
+0 x_2_12_0 +1 x_2_12_1 +0 x_2_12_2 +1 x_2_12_3 +0 x_2_6_0_sb -1 x_2_6_1_sb +0 x_2_6_2_sb -1 x_2_6_3_sb +0 p0_2_6 +1 p1_2_6 >= -1
+1 x_2_12_0 -1 x_2_12_1 +1 x_2_12_2 -1 x_2_12_3 +1 x_2_6_0_sb +0 x_2_6_1_sb +0 x_2_6_2_sb +0 x_2_6_3_sb +0 p0_2_6 +0 p1_2_6 >= -1
+1 x_2_12_0 +0 x_2_12_1 +0 x_2_12_2 +0 x_2_12_3 +1 x_2_6_0_sb -1 x_2_6_1_sb +1 x_2_6_2_sb -1 x_2_6_3_sb +0 p0_2_6 +0 p1_2_6 >= -1
+0 x_2_12_0 -1 x_2_12_1 +0 x_2_12_2 -1 x_2_12_3 +1 x_2_6_0_sb -1 x_2_6_1_sb -1 x_2_6_2_sb -1 x_2_6_3_sb +0 p0_2_6 +0 p1_2_6 >= -4
+1 x_2_12_0 +0 x_2_12_1 +0 x_2_12_2 +1 x_2_12_3 +0 x_2_6_0_sb -1 x_2_6_1_sb -1 x_2_6_2_sb +1 x_2_6_3_sb +0 p0_2_6 -1 p1_2_6 >= -2
+0 x_2_12_0 +0 x_2_12_1 -1 x_2_12_2 +1 x_2_12_3 -1 x_2_6_0_sb +1 x_2_6_1_sb +0 x_2_6_2_sb -1 x_2_6_3_sb +0 p0_2_6 -1 p1_2_6 >= -3
+0 x_2_12_0 +1 x_2_12_1 +0 x_2_12_2 +1 x_2_12_3 -1 x_2_6_0_sb -1 x_2_6_1_sb +0 x_2_6_2_sb +1 x_2_6_3_sb +0 p0_2_6 -1 p1_2_6 >= -2
-1 x_2_12_0 +1 x_2_12_1 +0 x_2_12_2 -1 x_2_12_3 +0 x_2_6_0_sb +0 x_2_6_1_sb -1 x_2_6_2_sb +1 x_2_6_3_sb +0 p0_2_6 -1 p1_2_6 >= -3
-1 x_2_12_0 +0 x_2_12_1 +0 x_2_12_2 +0 x_2_12_3 -1 x_2_6_0_sb +1 x_2_6_1_sb +0 x_2_6_2_sb -1 x_2_6_3_sb +0 p0_2_6 -1 p1_2_6 >= -3
+0 x_2_12_0 +0 x_2_12_1 -1 x_2_12_2 +0 x_2_12_3 +1 x_2_6_0_sb +1 x_2_6_1_sb +0 x_2_6_2_sb +1 x_2_6_3_sb +0 p0_2_6 +0 p1_2_6 >= 0
+0 x_2_14_0 +0 x_2_14_1 +0 x_2_14_2 +0 x_2_14_3 +0 x_2_7_0_sb +0 x_2_7_1_sb +0 x_2_7_2_sb +0 x_2_7_3_sb -1 p0_2_7 -1 p1_2_7 >= -1
+0 x_2_14_0 +0 x_2_14_1 +0 x_2_14_2 +0 x_2_14_3 +0 x_2_7_0_sb +0 x_2_7_1_sb +0 x_2_7_2_sb -1 x_2_7_3_sb +1 p0_2_7 +1 p1_2_7 >= 0
+0 x_2_14_0 +0 x_2_14_1 +0 x_2_14_2 +0 x_2_14_3 +0 x_2_7_0_sb -1 x_2_7_1_sb +0 x_2_7_2_sb +0 x_2_7_3_sb +1 p0_2_7 +1 p1_2_7 >= 0
+0 x_2_14_0 +0 x_2_14_1 +0 x_2_14_2 +0 x_2_14_3 -1 x_2_7_0_sb +0 x_2_7_1_sb +0 x_2_7_2_sb +0 x_2_7_3_sb +1 p0_2_7 +1 p1_2_7 >= 0
+0 x_2_14_0 +0 x_2_14_1 +0 x_2_14_2 +0 x_2_14_3 +1 x_2_7_0_sb +1 x_2_7_1_sb +1 x_2_7_2_sb +1 x_2_7_3_sb +0 p0_2_7 -1 p1_2_7 >= 0
+0 x_2_14_0 +0 x_2_14_1 +0 x_2_14_2 -1 x_2_14_3 +1 x_2_7_0_sb +1 x_2_7_1_sb +0 x_2_7_2_sb +1 x_2_7_3_sb +0 p0_2_7 +1 p1_2_7 >= 0
-1 x_2_14_0 +0 x_2_14_1 -1 x_2_14_2 +0 x_2_14_3 +1 x_2_7_0_sb +0 x_2_7_1_sb +0 x_2_7_2_sb +1 x_2_7_3_sb +0 p0_2_7 -1 p1_2_7 >= -2
+1 x_2_14_0 +0 x_2_14_1 +1 x_2_14_2 +0 x_2_14_3 +1 x_2_7_0_sb +0 x_2_7_1_sb +1 x_2_7_2_sb +0 x_2_7_3_sb +0 p0_2_7 -1 p1_2_7 >= 0
+0 x_2_14_0 +0 x_2_14_1 +0 x_2_14_2 +1 x_2_14_3 +0 x_2_7_0_sb +1 x_2_7_1_sb -1 x_2_7_2_sb -1 x_2_7_3_sb +0 p0_2_7 -1 p1_2_7 >= -2
-1 x_2_14_0 +0 x_2_14_1 +0 x_2_14_2 -1 x_2_14_3 -1 x_2_7_0_sb +0 x_2_7_1_sb +0 x_2_7_2_sb +1 x_2_7_3_sb +0 p0_2_7 -1 p1_2_7 >= -3
+0 x_2_14_0 +0 x_2_14_1 +0 x_2_14_2 +1 x_2_14_3 -1 x_2_7_0_sb -1 x_2_7_1_sb -1 x_2_7_2_sb +0 x_2_7_3_sb +0 p0_2_7 -1 p1_2_7 >= -3
+1 x_2_14_0 +1 x_2_14_1 +0 x_2_14_2 +1 x_2_14_3 +0 x_2_7_0_sb +0 x_2_7_1_sb +0 x_2_7_2_sb +0 x_2_7_3_sb -1 p0_2_7 +0 p1_2_7 >= 0
+0 x_2_14_0 +0 x_2_14_1 +1 x_2_14_2 +1 x_2_14_3 +0 x_2_7_0_sb -1 x_2_7_1_sb +1 x_2_7_2_sb +0 x_2_7_3_sb +0 p0_2_7 -1 p1_2_7 >= -1
+0 x_2_14_0 +1 x_2_14_1 +0 x_2_14_2 -1 x_2_14_3 -1 x_2_7_0_sb +0 x_2_7_1_sb -1 x_2_7_2_sb +0 x_2_7_3_sb +0 p0_2_7 -1 p1_2_7 >= -3
+0 x_2_14_0 +1 x_2_14_1 +1 x_2_14_2 +0 x_2_14_3 +0 x_2_7_0_sb +0 x_2_7_1_sb +1 x_2_7_2_sb -1 x_2_7_3_sb +0 p0_2_7 -1 p1_2_7 >= -1
-1 x_2_14_0 +0 x_2_14_1 -1 x_2_14_2 +0 x_2_14_3 -1 x_2_7_0_sb +0 x_2_7_1_sb +1 x_2_7_2_sb +0 x_2_7_3_sb +0 p0_2_7 -1 p1_2_7 >= -3
+0 x_2_14_0 -1 x_2_14_1 -1 x_2_14_2 +0 x_2_14_3 +0 x_2_7_0_sb +1 x_2_7_1_sb +0 x_2_7_2_sb +1 x_2_7_3_sb +0 p0_2_7 -1 p1_2_7 >= -2
+0 x_2_14_0 -1 x_2_14_1 +0 x_2_14_2 +0 x_2_14_3 +1 x_2_7_0_sb +1 x_2_7_1_sb +0 x_2_7_2_sb +1 x_2_7_3_sb +0 p0_2_7 +1 p1_2_7 >= 0
-1 x_2_14_0 -1 x_2_14_1 +0 x_2_14_2 +1 x_2_14_3 +0 x_2_7_0_sb +1 x_2_7_1_sb +0 x_2_7_2_sb +1 x_2_7_3_sb +0 p0_2_7 -1 p1_2_7 >= -2
+0 x_2_14_0 -1 x_2_14_1 +0 x_2_14_2 +0 x_2_14_3 +1 x_2_7_0_sb +0 x_2_7_1_sb +1 x_2_7_2_sb +1 x_2_7_3_sb +0 p0_2_7 -1 p1_2_7 >= -1
-1 x_2_14_0 +0 x_2_14_1 -1 x_2_14_2 +0 x_2_14_3 +1 x_2_7_0_sb +1 x_2_7_1_sb +0 x_2_7_2_sb +0 x_2_7_3_sb +0 p0_2_7 -1 p1_2_7 >= -2
+0 x_2_14_0 +1 x_2_14_1 -1 x_2_14_2 -1 x_2_14_3 +0 x_2_7_0_sb +0 x_2_7_1_sb +0 x_2_7_2_sb +1 x_2_7_3_sb +0 p0_2_7 -1 p1_2_7 >= -2
-1 x_2_14_0 -1 x_2_14_1 +0 x_2_14_2 -1 x_2_14_3 +0 x_2_7_0_sb +1 x_2_7_1_sb +0 x_2_7_2_sb -1 x_2_7_3_sb +0 p0_2_7 -1 p1_2_7 >= -4
-1 x_2_14_0 +1 x_2_14_1 +0 x_2_14_2 +1 x_2_14_3 +0 x_2_7_0_sb +1 x_2_7_1_sb +0 x_2_7_2_sb +1 x_2_7_3_sb +0 p0_2_7 +1 p1_2_7 >= 0
+0 x_2_14_0 +0 x_2_14_1 +0 x_2_14_2 +0 x_2_14_3 +1 x_2_7_0_sb -1 x_2_7_1_sb +0 x_2_7_2_sb -1 x_2_7_3_sb +0 p0_2_7 +1 p1_2_7 >= -1
+1 x_2_14_0 +0 x_2_14_1 +1 x_2_14_2 +0 x_2_14_3 +1 x_2_7_0_sb -1 x_2_7_1_sb +0 x_2_7_2_sb +0 x_2_7_3_sb +0 p0_2_7 -1 p1_2_7 >= -1
+0 x_2_14_0 +1 x_2_14_1 +0 x_2_14_2 +1 x_2_14_3 +0 x_2_7_0_sb -1 x_2_7_1_sb -1 x_2_7_2_sb +0 x_2_7_3_sb +0 p0_2_7 -1 p1_2_7 >= -2
+1 x_2_14_0 -1 x_2_14_1 +0 x_2_14_2 -1 x_2_14_3 +0 x_2_7_0_sb +0 x_2_7_1_sb +1 x_2_7_2_sb +0 x_2_7_3_sb +0 p0_2_7 +0 p1_2_7 >= -1
+1 x_2_14_0 -1 x_2_14_1 -1 x_2_14_2 +0 x_2_14_3 +0 x_2_7_0_sb +0 x_2_7_1_sb +1 x_2_7_2_sb -1 x_2_7_3_sb +0 p0_2_7 -1 p1_2_7 >= -3
+1 x_2_14_0 -1 x_2_14_1 +0 x_2_14_2 -1 x_2_14_3 +0 x_2_7_0_sb +0 x_2_7_1_sb +0 x_2_7_2_sb +0 x_2_7_3_sb +0 p0_2_7 +1 p1_2_7 >= -1
+1 x_2_14_0 +0 x_2_14_1 +0 x_2_14_2 +0 x_2_14_3 -1 x_2_7_0_sb +1 x_2_7_1_sb +0 x_2_7_2_sb -1 x_2_7_3_sb +0 p0_2_7 +1 p1_2_7 >= -1
+1 x_2_14_0 +0 x_2_14_1 +0 x_2_14_2 +0 x_2_14_3 -1 x_2_7_0_sb -1 x_2_7_1_sb +0 x_2_7_2_sb +1 x_2_7_3_sb +0 p0_2_7 +1 p1_2_7 >= -1
-1 x_2_14_0 -1 x_2_14_1 +0 x_2_14_2 +1 x_2_14_3 +1 x_2_7_0_sb +0 x_2_7_1_sb +0 x_2_7_2_sb +0 x_2_7_3_sb +0 p0_2_7 +1 p1_2_7 >= -1
-1 x_2_14_0 +1 x_2_14_1 +0 x_2_14_2 -1 x_2_14_3 +1 x_2_7_0_sb +0 x_2_7_1_sb +0 x_2_7_2_sb +0 x_2_7_3_sb +0 p0_2_7 +1 p1_2_7 >= -1
+0 x_2_14_0 -1 x_2_14_1 +0 x_2_14_2 -1 x_2_14_3 +0 x_2_7_0_sb -1 x_2_7_1_sb +0 x_2_7_2_sb -1 x_2_7_3_sb +0 p0_2_7 +1 p1_2_7 >= -3
+1 x_2_14_0 +1 x_2_14_1 +0 x_2_14_2 +1 x_2_14_3 +0 x_2_7_0_sb +0 x_2_7_1_sb -1 x_2_7_2_sb +0 x_2_7_3_sb +0 p0_2_7 +0 p1_2_7 >= 0
-1 x_2_14_0 +0 x_2_14_1 +1 x_2_14_2 -1 x_2_14_3 +0 x_2_7_0_sb -1 x_2_7_1_sb -1 x_2_7_2_sb +0 x_2_7_3_sb +0 p0_2_7 -1 p1_2_7 >= -4
+1 x_2_14_0 +1 x_2_14_1 +0 x_2_14_2 -1 x_2_14_3 +1 x_2_7_0_sb +1 x_2_7_1_sb +0 x_2_7_2_sb -1 x_2_7_3_sb +0 p0_2_7 -1 p1_2_7 >= -2
+1 x_2_14_0 +0 x_2_14_1 +1 x_2_14_2 +0 x_2_14_3 +0 x_2_7_0_sb +1 x_2_7_1_sb +1 x_2_7_2_sb +1 x_2_7_3_sb +0 p0_2_7 -1 p1_2_7 >= 0
+1 x_2_14_0 +0 x_2_14_1 -1 x_2_14_2 -1 x_2_14_3 -1 x_2_7_0_sb -1 x_2_7_1_sb +0 x_2_7_2_sb -1 x_2_7_3_sb +0 p0_2_7 -1 p1_2_7 >= -5
+0 x_2_14_0 +0 x_2_14_1 +1 x_2_14_2 +1 x_2_14_3 -1 x_2_7_0_sb +0 x_2_7_1_sb -1 x_2_7_2_sb +0 x_2_7_3_sb +0 p0_2_7 -1 p1_2_7 >= -2
+0 x_2_14_0 +0 x_2_14_1 +1 x_2_14_2 +0 x_2_14_3 +1 x_2_7_0_sb -1 x_2_7_1_sb +0 x_2_7_2_sb -1 x_2_7_3_sb +0 p0_2_7 +0 p1_2_7 >= -1
+0 x_2_14_0 -1 x_2_14_1 +0 x_2_14_2 -1 x_2_14_3 +0 x_2_7_0_sb +1 x_2_7_1_sb +0 x_2_7_2_sb +1 x_2_7_3_sb +0 p0_2_7 +1 p1_2_7 >= -1
+0 x_2_14_0 +1 x_2_14_1 +0 x_2_14_2 +1 x_2_14_3 +0 x_2_7_0_sb -1 x_2_7_1_sb +0 x_2_7_2_sb -1 x_2_7_3_sb +0 p0_2_7 +1 p1_2_7 >= -1
+1 x_2_14_0 -1 x_2_14_1 +1 x_2_14_2 -1 x_2_14_3 +1 x_2_7_0_sb +0 x_2_7_1_sb +0 x_2_7_2_sb +0 x_2_7_3_sb +0 p0_2_7 +0 p1_2_7 >= -1
+1 x_2_14_0 +0 x_2_14_1 +0 x_2_14_2 +0 x_2_14_3 +1 x_2_7_0_sb -1 x_2_7_1_sb +1 x_2_7_2_sb -1 x_2_7_3_sb +0 p0_2_7 +0 p1_2_7 >= -1
+0 x_2_14_0 -1 x_2_14_1 +0 x_2_14_2 -1 x_2_14_3 +1 x_2_7_0_sb -1 x_2_7_1_sb -1 x_2_7_2_sb -1 x_2_7_3_sb +0 p0_2_7 +0 p1_2_7 >= -4
+1 x_2_14_0 +0 x_2_14_1 +0 x_2_14_2 +1 x_2_14_3 +0 x_2_7_0_sb -1 x_2_7_1_sb -1 x_2_7_2_sb +1 x_2_7_3_sb +0 p0_2_7 -1 p1_2_7 >= -2
+0 x_2_14_0 +0 x_2_14_1 -1 x_2_14_2 +1 x_2_14_3 -1 x_2_7_0_sb +1 x_2_7_1_sb +0 x_2_7_2_sb -1 x_2_7_3_sb +0 p0_2_7 -1 p1_2_7 >= -3
+0 x_2_14_0 +1 x_2_14_1 +0 x_2_14_2 +1 x_2_14_3 -1 x_2_7_0_sb -1 x_2_7_1_sb +0 x_2_7_2_sb +1 x_2_7_3_sb +0 p0_2_7 -1 p1_2_7 >= -2
-1 x_2_14_0 +1 x_2_14_1 +0 x_2_14_2 -1 x_2_14_3 +0 x_2_7_0_sb +0 x_2_7_1_sb -1 x_2_7_2_sb +1 x_2_7_3_sb +0 p0_2_7 -1 p1_2_7 >= -3
-1 x_2_14_0 +0 x_2_14_1 +0 x_2_14_2 +0 x_2_14_3 -1 x_2_7_0_sb +1 x_2_7_1_sb +0 x_2_7_2_sb -1 x_2_7_3_sb +0 p0_2_7 -1 p1_2_7 >= -3
+0 x_2_14_0 +0 x_2_14_1 -1 x_2_14_2 +0 x_2_14_3 +1 x_2_7_0_sb +1 x_2_7_1_sb +0 x_2_7_2_sb +1 x_2_7_3_sb +0 p0_2_7 +0 p1_2_7 >= 0
+0 x_2_16_0 +0 x_2_16_1 +0 x_2_16_2 +0 x_2_16_3 +0 x_2_8_0_sb +0 x_2_8_1_sb +0 x_2_8_2_sb +0 x_2_8_3_sb -1 p0_2_8 -1 p1_2_8 >= -1
+0 x_2_16_0 +0 x_2_16_1 +0 x_2_16_2 +0 x_2_16_3 +0 x_2_8_0_sb +0 x_2_8_1_sb +0 x_2_8_2_sb -1 x_2_8_3_sb +1 p0_2_8 +1 p1_2_8 >= 0
+0 x_2_16_0 +0 x_2_16_1 +0 x_2_16_2 +0 x_2_16_3 +0 x_2_8_0_sb -1 x_2_8_1_sb +0 x_2_8_2_sb +0 x_2_8_3_sb +1 p0_2_8 +1 p1_2_8 >= 0
+0 x_2_16_0 +0 x_2_16_1 +0 x_2_16_2 +0 x_2_16_3 -1 x_2_8_0_sb +0 x_2_8_1_sb +0 x_2_8_2_sb +0 x_2_8_3_sb +1 p0_2_8 +1 p1_2_8 >= 0
+0 x_2_16_0 +0 x_2_16_1 +0 x_2_16_2 +0 x_2_16_3 +1 x_2_8_0_sb +1 x_2_8_1_sb +1 x_2_8_2_sb +1 x_2_8_3_sb +0 p0_2_8 -1 p1_2_8 >= 0
+0 x_2_16_0 +0 x_2_16_1 +0 x_2_16_2 -1 x_2_16_3 +1 x_2_8_0_sb +1 x_2_8_1_sb +0 x_2_8_2_sb +1 x_2_8_3_sb +0 p0_2_8 +1 p1_2_8 >= 0
-1 x_2_16_0 +0 x_2_16_1 -1 x_2_16_2 +0 x_2_16_3 +1 x_2_8_0_sb +0 x_2_8_1_sb +0 x_2_8_2_sb +1 x_2_8_3_sb +0 p0_2_8 -1 p1_2_8 >= -2
+1 x_2_16_0 +0 x_2_16_1 +1 x_2_16_2 +0 x_2_16_3 +1 x_2_8_0_sb +0 x_2_8_1_sb +1 x_2_8_2_sb +0 x_2_8_3_sb +0 p0_2_8 -1 p1_2_8 >= 0
+0 x_2_16_0 +0 x_2_16_1 +0 x_2_16_2 +1 x_2_16_3 +0 x_2_8_0_sb +1 x_2_8_1_sb -1 x_2_8_2_sb -1 x_2_8_3_sb +0 p0_2_8 -1 p1_2_8 >= -2
-1 x_2_16_0 +0 x_2_16_1 +0 x_2_16_2 -1 x_2_16_3 -1 x_2_8_0_sb +0 x_2_8_1_sb +0 x_2_8_2_sb +1 x_2_8_3_sb +0 p0_2_8 -1 p1_2_8 >= -3
+0 x_2_16_0 +0 x_2_16_1 +0 x_2_16_2 +1 x_2_16_3 -1 x_2_8_0_sb -1 x_2_8_1_sb -1 x_2_8_2_sb +0 x_2_8_3_sb +0 p0_2_8 -1 p1_2_8 >= -3
+1 x_2_16_0 +1 x_2_16_1 +0 x_2_16_2 +1 x_2_16_3 +0 x_2_8_0_sb +0 x_2_8_1_sb +0 x_2_8_2_sb +0 x_2_8_3_sb -1 p0_2_8 +0 p1_2_8 >= 0
+0 x_2_16_0 +0 x_2_16_1 +1 x_2_16_2 +1 x_2_16_3 +0 x_2_8_0_sb -1 x_2_8_1_sb +1 x_2_8_2_sb +0 x_2_8_3_sb +0 p0_2_8 -1 p1_2_8 >= -1
+0 x_2_16_0 +1 x_2_16_1 +0 x_2_16_2 -1 x_2_16_3 -1 x_2_8_0_sb +0 x_2_8_1_sb -1 x_2_8_2_sb +0 x_2_8_3_sb +0 p0_2_8 -1 p1_2_8 >= -3
+0 x_2_16_0 +1 x_2_16_1 +1 x_2_16_2 +0 x_2_16_3 +0 x_2_8_0_sb +0 x_2_8_1_sb +1 x_2_8_2_sb -1 x_2_8_3_sb +0 p0_2_8 -1 p1_2_8 >= -1
-1 x_2_16_0 +0 x_2_16_1 -1 x_2_16_2 +0 x_2_16_3 -1 x_2_8_0_sb +0 x_2_8_1_sb +1 x_2_8_2_sb +0 x_2_8_3_sb +0 p0_2_8 -1 p1_2_8 >= -3
+0 x_2_16_0 -1 x_2_16_1 -1 x_2_16_2 +0 x_2_16_3 +0 x_2_8_0_sb +1 x_2_8_1_sb +0 x_2_8_2_sb +1 x_2_8_3_sb +0 p0_2_8 -1 p1_2_8 >= -2
+0 x_2_16_0 -1 x_2_16_1 +0 x_2_16_2 +0 x_2_16_3 +1 x_2_8_0_sb +1 x_2_8_1_sb +0 x_2_8_2_sb +1 x_2_8_3_sb +0 p0_2_8 +1 p1_2_8 >= 0
-1 x_2_16_0 -1 x_2_16_1 +0 x_2_16_2 +1 x_2_16_3 +0 x_2_8_0_sb +1 x_2_8_1_sb +0 x_2_8_2_sb +1 x_2_8_3_sb +0 p0_2_8 -1 p1_2_8 >= -2
+0 x_2_16_0 -1 x_2_16_1 +0 x_2_16_2 +0 x_2_16_3 +1 x_2_8_0_sb +0 x_2_8_1_sb +1 x_2_8_2_sb +1 x_2_8_3_sb +0 p0_2_8 -1 p1_2_8 >= -1
-1 x_2_16_0 +0 x_2_16_1 -1 x_2_16_2 +0 x_2_16_3 +1 x_2_8_0_sb +1 x_2_8_1_sb +0 x_2_8_2_sb +0 x_2_8_3_sb +0 p0_2_8 -1 p1_2_8 >= -2
+0 x_2_16_0 +1 x_2_16_1 -1 x_2_16_2 -1 x_2_16_3 +0 x_2_8_0_sb +0 x_2_8_1_sb +0 x_2_8_2_sb +1 x_2_8_3_sb +0 p0_2_8 -1 p1_2_8 >= -2
-1 x_2_16_0 -1 x_2_16_1 +0 x_2_16_2 -1 x_2_16_3 +0 x_2_8_0_sb +1 x_2_8_1_sb +0 x_2_8_2_sb -1 x_2_8_3_sb +0 p0_2_8 -1 p1_2_8 >= -4
-1 x_2_16_0 +1 x_2_16_1 +0 x_2_16_2 +1 x_2_16_3 +0 x_2_8_0_sb +1 x_2_8_1_sb +0 x_2_8_2_sb +1 x_2_8_3_sb +0 p0_2_8 +1 p1_2_8 >= 0
+0 x_2_16_0 +0 x_2_16_1 +0 x_2_16_2 +0 x_2_16_3 +1 x_2_8_0_sb -1 x_2_8_1_sb +0 x_2_8_2_sb -1 x_2_8_3_sb +0 p0_2_8 +1 p1_2_8 >= -1
+1 x_2_16_0 +0 x_2_16_1 +1 x_2_16_2 +0 x_2_16_3 +1 x_2_8_0_sb -1 x_2_8_1_sb +0 x_2_8_2_sb +0 x_2_8_3_sb +0 p0_2_8 -1 p1_2_8 >= -1
+0 x_2_16_0 +1 x_2_16_1 +0 x_2_16_2 +1 x_2_16_3 +0 x_2_8_0_sb -1 x_2_8_1_sb -1 x_2_8_2_sb +0 x_2_8_3_sb +0 p0_2_8 -1 p1_2_8 >= -2
+1 x_2_16_0 -1 x_2_16_1 +0 x_2_16_2 -1 x_2_16_3 +0 x_2_8_0_sb +0 x_2_8_1_sb +1 x_2_8_2_sb +0 x_2_8_3_sb +0 p0_2_8 +0 p1_2_8 >= -1
+1 x_2_16_0 -1 x_2_16_1 -1 x_2_16_2 +0 x_2_16_3 +0 x_2_8_0_sb +0 x_2_8_1_sb +1 x_2_8_2_sb -1 x_2_8_3_sb +0 p0_2_8 -1 p1_2_8 >= -3
+1 x_2_16_0 -1 x_2_16_1 +0 x_2_16_2 -1 x_2_16_3 +0 x_2_8_0_sb +0 x_2_8_1_sb +0 x_2_8_2_sb +0 x_2_8_3_sb +0 p0_2_8 +1 p1_2_8 >= -1
+1 x_2_16_0 +0 x_2_16_1 +0 x_2_16_2 +0 x_2_16_3 -1 x_2_8_0_sb +1 x_2_8_1_sb +0 x_2_8_2_sb -1 x_2_8_3_sb +0 p0_2_8 +1 p1_2_8 >= -1
+1 x_2_16_0 +0 x_2_16_1 +0 x_2_16_2 +0 x_2_16_3 -1 x_2_8_0_sb -1 x_2_8_1_sb +0 x_2_8_2_sb +1 x_2_8_3_sb +0 p0_2_8 +1 p1_2_8 >= -1
-1 x_2_16_0 -1 x_2_16_1 +0 x_2_16_2 +1 x_2_16_3 +1 x_2_8_0_sb +0 x_2_8_1_sb +0 x_2_8_2_sb +0 x_2_8_3_sb +0 p0_2_8 +1 p1_2_8 >= -1
-1 x_2_16_0 +1 x_2_16_1 +0 x_2_16_2 -1 x_2_16_3 +1 x_2_8_0_sb +0 x_2_8_1_sb +0 x_2_8_2_sb +0 x_2_8_3_sb +0 p0_2_8 +1 p1_2_8 >= -1
+0 x_2_16_0 -1 x_2_16_1 +0 x_2_16_2 -1 x_2_16_3 +0 x_2_8_0_sb -1 x_2_8_1_sb +0 x_2_8_2_sb -1 x_2_8_3_sb +0 p0_2_8 +1 p1_2_8 >= -3
+1 x_2_16_0 +1 x_2_16_1 +0 x_2_16_2 +1 x_2_16_3 +0 x_2_8_0_sb +0 x_2_8_1_sb -1 x_2_8_2_sb +0 x_2_8_3_sb +0 p0_2_8 +0 p1_2_8 >= 0
-1 x_2_16_0 +0 x_2_16_1 +1 x_2_16_2 -1 x_2_16_3 +0 x_2_8_0_sb -1 x_2_8_1_sb -1 x_2_8_2_sb +0 x_2_8_3_sb +0 p0_2_8 -1 p1_2_8 >= -4
+1 x_2_16_0 +1 x_2_16_1 +0 x_2_16_2 -1 x_2_16_3 +1 x_2_8_0_sb +1 x_2_8_1_sb +0 x_2_8_2_sb -1 x_2_8_3_sb +0 p0_2_8 -1 p1_2_8 >= -2
+1 x_2_16_0 +0 x_2_16_1 +1 x_2_16_2 +0 x_2_16_3 +0 x_2_8_0_sb +1 x_2_8_1_sb +1 x_2_8_2_sb +1 x_2_8_3_sb +0 p0_2_8 -1 p1_2_8 >= 0
+1 x_2_16_0 +0 x_2_16_1 -1 x_2_16_2 -1 x_2_16_3 -1 x_2_8_0_sb -1 x_2_8_1_sb +0 x_2_8_2_sb -1 x_2_8_3_sb +0 p0_2_8 -1 p1_2_8 >= -5
+0 x_2_16_0 +0 x_2_16_1 +1 x_2_16_2 +1 x_2_16_3 -1 x_2_8_0_sb +0 x_2_8_1_sb -1 x_2_8_2_sb +0 x_2_8_3_sb +0 p0_2_8 -1 p1_2_8 >= -2
+0 x_2_16_0 +0 x_2_16_1 +1 x_2_16_2 +0 x_2_16_3 +1 x_2_8_0_sb -1 x_2_8_1_sb +0 x_2_8_2_sb -1 x_2_8_3_sb +0 p0_2_8 +0 p1_2_8 >= -1
+0 x_2_16_0 -1 x_2_16_1 +0 x_2_16_2 -1 x_2_16_3 +0 x_2_8_0_sb +1 x_2_8_1_sb +0 x_2_8_2_sb +1 x_2_8_3_sb +0 p0_2_8 +1 p1_2_8 >= -1
+0 x_2_16_0 +1 x_2_16_1 +0 x_2_16_2 +1 x_2_16_3 +0 x_2_8_0_sb -1 x_2_8_1_sb +0 x_2_8_2_sb -1 x_2_8_3_sb +0 p0_2_8 +1 p1_2_8 >= -1
+1 x_2_16_0 -1 x_2_16_1 +1 x_2_16_2 -1 x_2_16_3 +1 x_2_8_0_sb +0 x_2_8_1_sb +0 x_2_8_2_sb +0 x_2_8_3_sb +0 p0_2_8 +0 p1_2_8 >= -1
+1 x_2_16_0 +0 x_2_16_1 +0 x_2_16_2 +0 x_2_16_3 +1 x_2_8_0_sb -1 x_2_8_1_sb +1 x_2_8_2_sb -1 x_2_8_3_sb +0 p0_2_8 +0 p1_2_8 >= -1
+0 x_2_16_0 -1 x_2_16_1 +0 x_2_16_2 -1 x_2_16_3 +1 x_2_8_0_sb -1 x_2_8_1_sb -1 x_2_8_2_sb -1 x_2_8_3_sb +0 p0_2_8 +0 p1_2_8 >= -4
+1 x_2_16_0 +0 x_2_16_1 +0 x_2_16_2 +1 x_2_16_3 +0 x_2_8_0_sb -1 x_2_8_1_sb -1 x_2_8_2_sb +1 x_2_8_3_sb +0 p0_2_8 -1 p1_2_8 >= -2
+0 x_2_16_0 +0 x_2_16_1 -1 x_2_16_2 +1 x_2_16_3 -1 x_2_8_0_sb +1 x_2_8_1_sb +0 x_2_8_2_sb -1 x_2_8_3_sb +0 p0_2_8 -1 p1_2_8 >= -3
+0 x_2_16_0 +1 x_2_16_1 +0 x_2_16_2 +1 x_2_16_3 -1 x_2_8_0_sb -1 x_2_8_1_sb +0 x_2_8_2_sb +1 x_2_8_3_sb +0 p0_2_8 -1 p1_2_8 >= -2
-1 x_2_16_0 +1 x_2_16_1 +0 x_2_16_2 -1 x_2_16_3 +0 x_2_8_0_sb +0 x_2_8_1_sb -1 x_2_8_2_sb +1 x_2_8_3_sb +0 p0_2_8 -1 p1_2_8 >= -3
-1 x_2_16_0 +0 x_2_16_1 +0 x_2_16_2 +0 x_2_16_3 -1 x_2_8_0_sb +1 x_2_8_1_sb +0 x_2_8_2_sb -1 x_2_8_3_sb +0 p0_2_8 -1 p1_2_8 >= -3
+0 x_2_16_0 +0 x_2_16_1 -1 x_2_16_2 +0 x_2_16_3 +1 x_2_8_0_sb +1 x_2_8_1_sb +0 x_2_8_2_sb +1 x_2_8_3_sb +0 p0_2_8 +0 p1_2_8 >= 0
+0 x_2_18_0 +0 x_2_18_1 +0 x_2_18_2 +0 x_2_18_3 +0 x_2_9_0_sb +0 x_2_9_1_sb +0 x_2_9_2_sb +0 x_2_9_3_sb -1 p0_2_9 -1 p1_2_9 >= -1
+0 x_2_18_0 +0 x_2_18_1 +0 x_2_18_2 +0 x_2_18_3 +0 x_2_9_0_sb +0 x_2_9_1_sb +0 x_2_9_2_sb -1 x_2_9_3_sb +1 p0_2_9 +1 p1_2_9 >= 0
+0 x_2_18_0 +0 x_2_18_1 +0 x_2_18_2 +0 x_2_18_3 +0 x_2_9_0_sb -1 x_2_9_1_sb +0 x_2_9_2_sb +0 x_2_9_3_sb +1 p0_2_9 +1 p1_2_9 >= 0
+0 x_2_18_0 +0 x_2_18_1 +0 x_2_18_2 +0 x_2_18_3 -1 x_2_9_0_sb +0 x_2_9_1_sb +0 x_2_9_2_sb +0 x_2_9_3_sb +1 p0_2_9 +1 p1_2_9 >= 0
+0 x_2_18_0 +0 x_2_18_1 +0 x_2_18_2 +0 x_2_18_3 +1 x_2_9_0_sb +1 x_2_9_1_sb +1 x_2_9_2_sb +1 x_2_9_3_sb +0 p0_2_9 -1 p1_2_9 >= 0
+0 x_2_18_0 +0 x_2_18_1 +0 x_2_18_2 -1 x_2_18_3 +1 x_2_9_0_sb +1 x_2_9_1_sb +0 x_2_9_2_sb +1 x_2_9_3_sb +0 p0_2_9 +1 p1_2_9 >= 0
-1 x_2_18_0 +0 x_2_18_1 -1 x_2_18_2 +0 x_2_18_3 +1 x_2_9_0_sb +0 x_2_9_1_sb +0 x_2_9_2_sb +1 x_2_9_3_sb +0 p0_2_9 -1 p1_2_9 >= -2
+1 x_2_18_0 +0 x_2_18_1 +1 x_2_18_2 +0 x_2_18_3 +1 x_2_9_0_sb +0 x_2_9_1_sb +1 x_2_9_2_sb +0 x_2_9_3_sb +0 p0_2_9 -1 p1_2_9 >= 0
+0 x_2_18_0 +0 x_2_18_1 +0 x_2_18_2 +1 x_2_18_3 +0 x_2_9_0_sb +1 x_2_9_1_sb -1 x_2_9_2_sb -1 x_2_9_3_sb +0 p0_2_9 -1 p1_2_9 >= -2
-1 x_2_18_0 +0 x_2_18_1 +0 x_2_18_2 -1 x_2_18_3 -1 x_2_9_0_sb +0 x_2_9_1_sb +0 x_2_9_2_sb +1 x_2_9_3_sb +0 p0_2_9 -1 p1_2_9 >= -3
+0 x_2_18_0 +0 x_2_18_1 +0 x_2_18_2 +1 x_2_18_3 -1 x_2_9_0_sb -1 x_2_9_1_sb -1 x_2_9_2_sb +0 x_2_9_3_sb +0 p0_2_9 -1 p1_2_9 >= -3
+1 x_2_18_0 +1 x_2_18_1 +0 x_2_18_2 +1 x_2_18_3 +0 x_2_9_0_sb +0 x_2_9_1_sb +0 x_2_9_2_sb +0 x_2_9_3_sb -1 p0_2_9 +0 p1_2_9 >= 0
+0 x_2_18_0 +0 x_2_18_1 +1 x_2_18_2 +1 x_2_18_3 +0 x_2_9_0_sb -1 x_2_9_1_sb +1 x_2_9_2_sb +0 x_2_9_3_sb +0 p0_2_9 -1 p1_2_9 >= -1
+0 x_2_18_0 +1 x_2_18_1 +0 x_2_18_2 -1 x_2_18_3 -1 x_2_9_0_sb +0 x_2_9_1_sb -1 x_2_9_2_sb +0 x_2_9_3_sb +0 p0_2_9 -1 p1_2_9 >= -3
+0 x_2_18_0 +1 x_2_18_1 +1 x_2_18_2 +0 x_2_18_3 +0 x_2_9_0_sb +0 x_2_9_1_sb +1 x_2_9_2_sb -1 x_2_9_3_sb +0 p0_2_9 -1 p1_2_9 >= -1
-1 x_2_18_0 +0 x_2_18_1 -1 x_2_18_2 +0 x_2_18_3 -1 x_2_9_0_sb +0 x_2_9_1_sb +1 x_2_9_2_sb +0 x_2_9_3_sb +0 p0_2_9 -1 p1_2_9 >= -3
+0 x_2_18_0 -1 x_2_18_1 -1 x_2_18_2 +0 x_2_18_3 +0 x_2_9_0_sb +1 x_2_9_1_sb +0 x_2_9_2_sb +1 x_2_9_3_sb +0 p0_2_9 -1 p1_2_9 >= -2
+0 x_2_18_0 -1 x_2_18_1 +0 x_2_18_2 +0 x_2_18_3 +1 x_2_9_0_sb +1 x_2_9_1_sb +0 x_2_9_2_sb +1 x_2_9_3_sb +0 p0_2_9 +1 p1_2_9 >= 0
-1 x_2_18_0 -1 x_2_18_1 +0 x_2_18_2 +1 x_2_18_3 +0 x_2_9_0_sb +1 x_2_9_1_sb +0 x_2_9_2_sb +1 x_2_9_3_sb +0 p0_2_9 -1 p1_2_9 >= -2
+0 x_2_18_0 -1 x_2_18_1 +0 x_2_18_2 +0 x_2_18_3 +1 x_2_9_0_sb +0 x_2_9_1_sb +1 x_2_9_2_sb +1 x_2_9_3_sb +0 p0_2_9 -1 p1_2_9 >= -1
-1 x_2_18_0 +0 x_2_18_1 -1 x_2_18_2 +0 x_2_18_3 +1 x_2_9_0_sb +1 x_2_9_1_sb +0 x_2_9_2_sb +0 x_2_9_3_sb +0 p0_2_9 -1 p1_2_9 >= -2
+0 x_2_18_0 +1 x_2_18_1 -1 x_2_18_2 -1 x_2_18_3 +0 x_2_9_0_sb +0 x_2_9_1_sb +0 x_2_9_2_sb +1 x_2_9_3_sb +0 p0_2_9 -1 p1_2_9 >= -2
-1 x_2_18_0 -1 x_2_18_1 +0 x_2_18_2 -1 x_2_18_3 +0 x_2_9_0_sb +1 x_2_9_1_sb +0 x_2_9_2_sb -1 x_2_9_3_sb +0 p0_2_9 -1 p1_2_9 >= -4
-1 x_2_18_0 +1 x_2_18_1 +0 x_2_18_2 +1 x_2_18_3 +0 x_2_9_0_sb +1 x_2_9_1_sb +0 x_2_9_2_sb +1 x_2_9_3_sb +0 p0_2_9 +1 p1_2_9 >= 0
+0 x_2_18_0 +0 x_2_18_1 +0 x_2_18_2 +0 x_2_18_3 +1 x_2_9_0_sb -1 x_2_9_1_sb +0 x_2_9_2_sb -1 x_2_9_3_sb +0 p0_2_9 +1 p1_2_9 >= -1
+1 x_2_18_0 +0 x_2_18_1 +1 x_2_18_2 +0 x_2_18_3 +1 x_2_9_0_sb -1 x_2_9_1_sb +0 x_2_9_2_sb +0 x_2_9_3_sb +0 p0_2_9 -1 p1_2_9 >= -1
+0 x_2_18_0 +1 x_2_18_1 +0 x_2_18_2 +1 x_2_18_3 +0 x_2_9_0_sb -1 x_2_9_1_sb -1 x_2_9_2_sb +0 x_2_9_3_sb +0 p0_2_9 -1 p1_2_9 >= -2
+1 x_2_18_0 -1 x_2_18_1 +0 x_2_18_2 -1 x_2_18_3 +0 x_2_9_0_sb +0 x_2_9_1_sb +1 x_2_9_2_sb +0 x_2_9_3_sb +0 p0_2_9 +0 p1_2_9 >= -1
+1 x_2_18_0 -1 x_2_18_1 -1 x_2_18_2 +0 x_2_18_3 +0 x_2_9_0_sb +0 x_2_9_1_sb +1 x_2_9_2_sb -1 x_2_9_3_sb +0 p0_2_9 -1 p1_2_9 >= -3
+1 x_2_18_0 -1 x_2_18_1 +0 x_2_18_2 -1 x_2_18_3 +0 x_2_9_0_sb +0 x_2_9_1_sb +0 x_2_9_2_sb +0 x_2_9_3_sb +0 p0_2_9 +1 p1_2_9 >= -1
+1 x_2_18_0 +0 x_2_18_1 +0 x_2_18_2 +0 x_2_18_3 -1 x_2_9_0_sb +1 x_2_9_1_sb +0 x_2_9_2_sb -1 x_2_9_3_sb +0 p0_2_9 +1 p1_2_9 >= -1
+1 x_2_18_0 +0 x_2_18_1 +0 x_2_18_2 +0 x_2_18_3 -1 x_2_9_0_sb -1 x_2_9_1_sb +0 x_2_9_2_sb +1 x_2_9_3_sb +0 p0_2_9 +1 p1_2_9 >= -1
-1 x_2_18_0 -1 x_2_18_1 +0 x_2_18_2 +1 x_2_18_3 +1 x_2_9_0_sb +0 x_2_9_1_sb +0 x_2_9_2_sb +0 x_2_9_3_sb +0 p0_2_9 +1 p1_2_9 >= -1
-1 x_2_18_0 +1 x_2_18_1 +0 x_2_18_2 -1 x_2_18_3 +1 x_2_9_0_sb +0 x_2_9_1_sb +0 x_2_9_2_sb +0 x_2_9_3_sb +0 p0_2_9 +1 p1_2_9 >= -1
+0 x_2_18_0 -1 x_2_18_1 +0 x_2_18_2 -1 x_2_18_3 +0 x_2_9_0_sb -1 x_2_9_1_sb +0 x_2_9_2_sb -1 x_2_9_3_sb +0 p0_2_9 +1 p1_2_9 >= -3
+1 x_2_18_0 +1 x_2_18_1 +0 x_2_18_2 +1 x_2_18_3 +0 x_2_9_0_sb +0 x_2_9_1_sb -1 x_2_9_2_sb +0 x_2_9_3_sb +0 p0_2_9 +0 p1_2_9 >= 0
-1 x_2_18_0 +0 x_2_18_1 +1 x_2_18_2 -1 x_2_18_3 +0 x_2_9_0_sb -1 x_2_9_1_sb -1 x_2_9_2_sb +0 x_2_9_3_sb +0 p0_2_9 -1 p1_2_9 >= -4
+1 x_2_18_0 +1 x_2_18_1 +0 x_2_18_2 -1 x_2_18_3 +1 x_2_9_0_sb +1 x_2_9_1_sb +0 x_2_9_2_sb -1 x_2_9_3_sb +0 p0_2_9 -1 p1_2_9 >= -2
+1 x_2_18_0 +0 x_2_18_1 +1 x_2_18_2 +0 x_2_18_3 +0 x_2_9_0_sb +1 x_2_9_1_sb +1 x_2_9_2_sb +1 x_2_9_3_sb +0 p0_2_9 -1 p1_2_9 >= 0
+1 x_2_18_0 +0 x_2_18_1 -1 x_2_18_2 -1 x_2_18_3 -1 x_2_9_0_sb -1 x_2_9_1_sb +0 x_2_9_2_sb -1 x_2_9_3_sb +0 p0_2_9 -1 p1_2_9 >= -5
+0 x_2_18_0 +0 x_2_18_1 +1 x_2_18_2 +1 x_2_18_3 -1 x_2_9_0_sb +0 x_2_9_1_sb -1 x_2_9_2_sb +0 x_2_9_3_sb +0 p0_2_9 -1 p1_2_9 >= -2
+0 x_2_18_0 +0 x_2_18_1 +1 x_2_18_2 +0 x_2_18_3 +1 x_2_9_0_sb -1 x_2_9_1_sb +0 x_2_9_2_sb -1 x_2_9_3_sb +0 p0_2_9 +0 p1_2_9 >= -1
+0 x_2_18_0 -1 x_2_18_1 +0 x_2_18_2 -1 x_2_18_3 +0 x_2_9_0_sb +1 x_2_9_1_sb +0 x_2_9_2_sb +1 x_2_9_3_sb +0 p0_2_9 +1 p1_2_9 >= -1
+0 x_2_18_0 +1 x_2_18_1 +0 x_2_18_2 +1 x_2_18_3 +0 x_2_9_0_sb -1 x_2_9_1_sb +0 x_2_9_2_sb -1 x_2_9_3_sb +0 p0_2_9 +1 p1_2_9 >= -1
+1 x_2_18_0 -1 x_2_18_1 +1 x_2_18_2 -1 x_2_18_3 +1 x_2_9_0_sb +0 x_2_9_1_sb +0 x_2_9_2_sb +0 x_2_9_3_sb +0 p0_2_9 +0 p1_2_9 >= -1
+1 x_2_18_0 +0 x_2_18_1 +0 x_2_18_2 +0 x_2_18_3 +1 x_2_9_0_sb -1 x_2_9_1_sb +1 x_2_9_2_sb -1 x_2_9_3_sb +0 p0_2_9 +0 p1_2_9 >= -1
+0 x_2_18_0 -1 x_2_18_1 +0 x_2_18_2 -1 x_2_18_3 +1 x_2_9_0_sb -1 x_2_9_1_sb -1 x_2_9_2_sb -1 x_2_9_3_sb +0 p0_2_9 +0 p1_2_9 >= -4
+1 x_2_18_0 +0 x_2_18_1 +0 x_2_18_2 +1 x_2_18_3 +0 x_2_9_0_sb -1 x_2_9_1_sb -1 x_2_9_2_sb +1 x_2_9_3_sb +0 p0_2_9 -1 p1_2_9 >= -2
+0 x_2_18_0 +0 x_2_18_1 -1 x_2_18_2 +1 x_2_18_3 -1 x_2_9_0_sb +1 x_2_9_1_sb +0 x_2_9_2_sb -1 x_2_9_3_sb +0 p0_2_9 -1 p1_2_9 >= -3
+0 x_2_18_0 +1 x_2_18_1 +0 x_2_18_2 +1 x_2_18_3 -1 x_2_9_0_sb -1 x_2_9_1_sb +0 x_2_9_2_sb +1 x_2_9_3_sb +0 p0_2_9 -1 p1_2_9 >= -2
-1 x_2_18_0 +1 x_2_18_1 +0 x_2_18_2 -1 x_2_18_3 +0 x_2_9_0_sb +0 x_2_9_1_sb -1 x_2_9_2_sb +1 x_2_9_3_sb +0 p0_2_9 -1 p1_2_9 >= -3
-1 x_2_18_0 +0 x_2_18_1 +0 x_2_18_2 +0 x_2_18_3 -1 x_2_9_0_sb +1 x_2_9_1_sb +0 x_2_9_2_sb -1 x_2_9_3_sb +0 p0_2_9 -1 p1_2_9 >= -3
+0 x_2_18_0 +0 x_2_18_1 -1 x_2_18_2 +0 x_2_18_3 +1 x_2_9_0_sb +1 x_2_9_1_sb +0 x_2_9_2_sb +1 x_2_9_3_sb +0 p0_2_9 +0 p1_2_9 >= 0
+0 x_2_20_0 +0 x_2_20_1 +0 x_2_20_2 +0 x_2_20_3 +0 x_2_10_0_sb +0 x_2_10_1_sb +0 x_2_10_2_sb +0 x_2_10_3_sb -1 p0_2_10 -1 p1_2_10 >= -1
+0 x_2_20_0 +0 x_2_20_1 +0 x_2_20_2 +0 x_2_20_3 +0 x_2_10_0_sb +0 x_2_10_1_sb +0 x_2_10_2_sb -1 x_2_10_3_sb +1 p0_2_10 +1 p1_2_10 >= 0
+0 x_2_20_0 +0 x_2_20_1 +0 x_2_20_2 +0 x_2_20_3 +0 x_2_10_0_sb -1 x_2_10_1_sb +0 x_2_10_2_sb +0 x_2_10_3_sb +1 p0_2_10 +1 p1_2_10 >= 0
+0 x_2_20_0 +0 x_2_20_1 +0 x_2_20_2 +0 x_2_20_3 -1 x_2_10_0_sb +0 x_2_10_1_sb +0 x_2_10_2_sb +0 x_2_10_3_sb +1 p0_2_10 +1 p1_2_10 >= 0
+0 x_2_20_0 +0 x_2_20_1 +0 x_2_20_2 +0 x_2_20_3 +1 x_2_10_0_sb +1 x_2_10_1_sb +1 x_2_10_2_sb +1 x_2_10_3_sb +0 p0_2_10 -1 p1_2_10 >= 0
+0 x_2_20_0 +0 x_2_20_1 +0 x_2_20_2 -1 x_2_20_3 +1 x_2_10_0_sb +1 x_2_10_1_sb +0 x_2_10_2_sb +1 x_2_10_3_sb +0 p0_2_10 +1 p1_2_10 >= 0
-1 x_2_20_0 +0 x_2_20_1 -1 x_2_20_2 +0 x_2_20_3 +1 x_2_10_0_sb +0 x_2_10_1_sb +0 x_2_10_2_sb +1 x_2_10_3_sb +0 p0_2_10 -1 p1_2_10 >= -2
+1 x_2_20_0 +0 x_2_20_1 +1 x_2_20_2 +0 x_2_20_3 +1 x_2_10_0_sb +0 x_2_10_1_sb +1 x_2_10_2_sb +0 x_2_10_3_sb +0 p0_2_10 -1 p1_2_10 >= 0
+0 x_2_20_0 +0 x_2_20_1 +0 x_2_20_2 +1 x_2_20_3 +0 x_2_10_0_sb +1 x_2_10_1_sb -1 x_2_10_2_sb -1 x_2_10_3_sb +0 p0_2_10 -1 p1_2_10 >= -2
-1 x_2_20_0 +0 x_2_20_1 +0 x_2_20_2 -1 x_2_20_3 -1 x_2_10_0_sb +0 x_2_10_1_sb +0 x_2_10_2_sb +1 x_2_10_3_sb +0 p0_2_10 -1 p1_2_10 >= -3
+0 x_2_20_0 +0 x_2_20_1 +0 x_2_20_2 +1 x_2_20_3 -1 x_2_10_0_sb -1 x_2_10_1_sb -1 x_2_10_2_sb +0 x_2_10_3_sb +0 p0_2_10 -1 p1_2_10 >= -3
+1 x_2_20_0 +1 x_2_20_1 +0 x_2_20_2 +1 x_2_20_3 +0 x_2_10_0_sb +0 x_2_10_1_sb +0 x_2_10_2_sb +0 x_2_10_3_sb -1 p0_2_10 +0 p1_2_10 >= 0
+0 x_2_20_0 +0 x_2_20_1 +1 x_2_20_2 +1 x_2_20_3 +0 x_2_10_0_sb -1 x_2_10_1_sb +1 x_2_10_2_sb +0 x_2_10_3_sb +0 p0_2_10 -1 p1_2_10 >= -1
+0 x_2_20_0 +1 x_2_20_1 +0 x_2_20_2 -1 x_2_20_3 -1 x_2_10_0_sb +0 x_2_10_1_sb -1 x_2_10_2_sb +0 x_2_10_3_sb +0 p0_2_10 -1 p1_2_10 >= -3
+0 x_2_20_0 +1 x_2_20_1 +1 x_2_20_2 +0 x_2_20_3 +0 x_2_10_0_sb +0 x_2_10_1_sb +1 x_2_10_2_sb -1 x_2_10_3_sb +0 p0_2_10 -1 p1_2_10 >= -1
-1 x_2_20_0 +0 x_2_20_1 -1 x_2_20_2 +0 x_2_20_3 -1 x_2_10_0_sb +0 x_2_10_1_sb +1 x_2_10_2_sb +0 x_2_10_3_sb +0 p0_2_10 -1 p1_2_10 >= -3
+0 x_2_20_0 -1 x_2_20_1 -1 x_2_20_2 +0 x_2_20_3 +0 x_2_10_0_sb +1 x_2_10_1_sb +0 x_2_10_2_sb +1 x_2_10_3_sb +0 p0_2_10 -1 p1_2_10 >= -2
+0 x_2_20_0 -1 x_2_20_1 +0 x_2_20_2 +0 x_2_20_3 +1 x_2_10_0_sb +1 x_2_10_1_sb +0 x_2_10_2_sb +1 x_2_10_3_sb +0 p0_2_10 +1 p1_2_10 >= 0
-1 x_2_20_0 -1 x_2_20_1 +0 x_2_20_2 +1 x_2_20_3 +0 x_2_10_0_sb +1 x_2_10_1_sb +0 x_2_10_2_sb +1 x_2_10_3_sb +0 p0_2_10 -1 p1_2_10 >= -2
+0 x_2_20_0 -1 x_2_20_1 +0 x_2_20_2 +0 x_2_20_3 +1 x_2_10_0_sb +0 x_2_10_1_sb +1 x_2_10_2_sb +1 x_2_10_3_sb +0 p0_2_10 -1 p1_2_10 >= -1
-1 x_2_20_0 +0 x_2_20_1 -1 x_2_20_2 +0 x_2_20_3 +1 x_2_10_0_sb +1 x_2_10_1_sb +0 x_2_10_2_sb +0 x_2_10_3_sb +0 p0_2_10 -1 p1_2_10 >= -2
+0 x_2_20_0 +1 x_2_20_1 -1 x_2_20_2 -1 x_2_20_3 +0 x_2_10_0_sb +0 x_2_10_1_sb +0 x_2_10_2_sb +1 x_2_10_3_sb +0 p0_2_10 -1 p1_2_10 >= -2
-1 x_2_20_0 -1 x_2_20_1 +0 x_2_20_2 -1 x_2_20_3 +0 x_2_10_0_sb +1 x_2_10_1_sb +0 x_2_10_2_sb -1 x_2_10_3_sb +0 p0_2_10 -1 p1_2_10 >= -4
-1 x_2_20_0 +1 x_2_20_1 +0 x_2_20_2 +1 x_2_20_3 +0 x_2_10_0_sb +1 x_2_10_1_sb +0 x_2_10_2_sb +1 x_2_10_3_sb +0 p0_2_10 +1 p1_2_10 >= 0
+0 x_2_20_0 +0 x_2_20_1 +0 x_2_20_2 +0 x_2_20_3 +1 x_2_10_0_sb -1 x_2_10_1_sb +0 x_2_10_2_sb -1 x_2_10_3_sb +0 p0_2_10 +1 p1_2_10 >= -1
+1 x_2_20_0 +0 x_2_20_1 +1 x_2_20_2 +0 x_2_20_3 +1 x_2_10_0_sb -1 x_2_10_1_sb +0 x_2_10_2_sb +0 x_2_10_3_sb +0 p0_2_10 -1 p1_2_10 >= -1
+0 x_2_20_0 +1 x_2_20_1 +0 x_2_20_2 +1 x_2_20_3 +0 x_2_10_0_sb -1 x_2_10_1_sb -1 x_2_10_2_sb +0 x_2_10_3_sb +0 p0_2_10 -1 p1_2_10 >= -2
+1 x_2_20_0 -1 x_2_20_1 +0 x_2_20_2 -1 x_2_20_3 +0 x_2_10_0_sb +0 x_2_10_1_sb +1 x_2_10_2_sb +0 x_2_10_3_sb +0 p0_2_10 +0 p1_2_10 >= -1
+1 x_2_20_0 -1 x_2_20_1 -1 x_2_20_2 +0 x_2_20_3 +0 x_2_10_0_sb +0 x_2_10_1_sb +1 x_2_10_2_sb -1 x_2_10_3_sb +0 p0_2_10 -1 p1_2_10 >= -3
+1 x_2_20_0 -1 x_2_20_1 +0 x_2_20_2 -1 x_2_20_3 +0 x_2_10_0_sb +0 x_2_10_1_sb +0 x_2_10_2_sb +0 x_2_10_3_sb +0 p0_2_10 +1 p1_2_10 >= -1
+1 x_2_20_0 +0 x_2_20_1 +0 x_2_20_2 +0 x_2_20_3 -1 x_2_10_0_sb +1 x_2_10_1_sb +0 x_2_10_2_sb -1 x_2_10_3_sb +0 p0_2_10 +1 p1_2_10 >= -1
+1 x_2_20_0 +0 x_2_20_1 +0 x_2_20_2 +0 x_2_20_3 -1 x_2_10_0_sb -1 x_2_10_1_sb +0 x_2_10_2_sb +1 x_2_10_3_sb +0 p0_2_10 +1 p1_2_10 >= -1
-1 x_2_20_0 -1 x_2_20_1 +0 x_2_20_2 +1 x_2_20_3 +1 x_2_10_0_sb +0 x_2_10_1_sb +0 x_2_10_2_sb +0 x_2_10_3_sb +0 p0_2_10 +1 p1_2_10 >= -1
-1 x_2_20_0 +1 x_2_20_1 +0 x_2_20_2 -1 x_2_20_3 +1 x_2_10_0_sb +0 x_2_10_1_sb +0 x_2_10_2_sb +0 x_2_10_3_sb +0 p0_2_10 +1 p1_2_10 >= -1
+0 x_2_20_0 -1 x_2_20_1 +0 x_2_20_2 -1 x_2_20_3 +0 x_2_10_0_sb -1 x_2_10_1_sb +0 x_2_10_2_sb -1 x_2_10_3_sb +0 p0_2_10 +1 p1_2_10 >= -3
+1 x_2_20_0 +1 x_2_20_1 +0 x_2_20_2 +1 x_2_20_3 +0 x_2_10_0_sb +0 x_2_10_1_sb -1 x_2_10_2_sb +0 x_2_10_3_sb +0 p0_2_10 +0 p1_2_10 >= 0
-1 x_2_20_0 +0 x_2_20_1 +1 x_2_20_2 -1 x_2_20_3 +0 x_2_10_0_sb -1 x_2_10_1_sb -1 x_2_10_2_sb +0 x_2_10_3_sb +0 p0_2_10 -1 p1_2_10 >= -4
+1 x_2_20_0 +1 x_2_20_1 +0 x_2_20_2 -1 x_2_20_3 +1 x_2_10_0_sb +1 x_2_10_1_sb +0 x_2_10_2_sb -1 x_2_10_3_sb +0 p0_2_10 -1 p1_2_10 >= -2
+1 x_2_20_0 +0 x_2_20_1 +1 x_2_20_2 +0 x_2_20_3 +0 x_2_10_0_sb +1 x_2_10_1_sb +1 x_2_10_2_sb +1 x_2_10_3_sb +0 p0_2_10 -1 p1_2_10 >= 0
+1 x_2_20_0 +0 x_2_20_1 -1 x_2_20_2 -1 x_2_20_3 -1 x_2_10_0_sb -1 x_2_10_1_sb +0 x_2_10_2_sb -1 x_2_10_3_sb +0 p0_2_10 -1 p1_2_10 >= -5
+0 x_2_20_0 +0 x_2_20_1 +1 x_2_20_2 +1 x_2_20_3 -1 x_2_10_0_sb +0 x_2_10_1_sb -1 x_2_10_2_sb +0 x_2_10_3_sb +0 p0_2_10 -1 p1_2_10 >= -2
+0 x_2_20_0 +0 x_2_20_1 +1 x_2_20_2 +0 x_2_20_3 +1 x_2_10_0_sb -1 x_2_10_1_sb +0 x_2_10_2_sb -1 x_2_10_3_sb +0 p0_2_10 +0 p1_2_10 >= -1
+0 x_2_20_0 -1 x_2_20_1 +0 x_2_20_2 -1 x_2_20_3 +0 x_2_10_0_sb +1 x_2_10_1_sb +0 x_2_10_2_sb +1 x_2_10_3_sb +0 p0_2_10 +1 p1_2_10 >= -1
+0 x_2_20_0 +1 x_2_20_1 +0 x_2_20_2 +1 x_2_20_3 +0 x_2_10_0_sb -1 x_2_10_1_sb +0 x_2_10_2_sb -1 x_2_10_3_sb +0 p0_2_10 +1 p1_2_10 >= -1
+1 x_2_20_0 -1 x_2_20_1 +1 x_2_20_2 -1 x_2_20_3 +1 x_2_10_0_sb +0 x_2_10_1_sb +0 x_2_10_2_sb +0 x_2_10_3_sb +0 p0_2_10 +0 p1_2_10 >= -1
+1 x_2_20_0 +0 x_2_20_1 +0 x_2_20_2 +0 x_2_20_3 +1 x_2_10_0_sb -1 x_2_10_1_sb +1 x_2_10_2_sb -1 x_2_10_3_sb +0 p0_2_10 +0 p1_2_10 >= -1
+0 x_2_20_0 -1 x_2_20_1 +0 x_2_20_2 -1 x_2_20_3 +1 x_2_10_0_sb -1 x_2_10_1_sb -1 x_2_10_2_sb -1 x_2_10_3_sb +0 p0_2_10 +0 p1_2_10 >= -4
+1 x_2_20_0 +0 x_2_20_1 +0 x_2_20_2 +1 x_2_20_3 +0 x_2_10_0_sb -1 x_2_10_1_sb -1 x_2_10_2_sb +1 x_2_10_3_sb +0 p0_2_10 -1 p1_2_10 >= -2
+0 x_2_20_0 +0 x_2_20_1 -1 x_2_20_2 +1 x_2_20_3 -1 x_2_10_0_sb +1 x_2_10_1_sb +0 x_2_10_2_sb -1 x_2_10_3_sb +0 p0_2_10 -1 p1_2_10 >= -3
+0 x_2_20_0 +1 x_2_20_1 +0 x_2_20_2 +1 x_2_20_3 -1 x_2_10_0_sb -1 x_2_10_1_sb +0 x_2_10_2_sb +1 x_2_10_3_sb +0 p0_2_10 -1 p1_2_10 >= -2
-1 x_2_20_0 +1 x_2_20_1 +0 x_2_20_2 -1 x_2_20_3 +0 x_2_10_0_sb +0 x_2_10_1_sb -1 x_2_10_2_sb +1 x_2_10_3_sb +0 p0_2_10 -1 p1_2_10 >= -3
-1 x_2_20_0 +0 x_2_20_1 +0 x_2_20_2 +0 x_2_20_3 -1 x_2_10_0_sb +1 x_2_10_1_sb +0 x_2_10_2_sb -1 x_2_10_3_sb +0 p0_2_10 -1 p1_2_10 >= -3
+0 x_2_20_0 +0 x_2_20_1 -1 x_2_20_2 +0 x_2_20_3 +1 x_2_10_0_sb +1 x_2_10_1_sb +0 x_2_10_2_sb +1 x_2_10_3_sb +0 p0_2_10 +0 p1_2_10 >= 0
+0 x_2_22_0 +0 x_2_22_1 +0 x_2_22_2 +0 x_2_22_3 +0 x_2_11_0_sb +0 x_2_11_1_sb +0 x_2_11_2_sb +0 x_2_11_3_sb -1 p0_2_11 -1 p1_2_11 >= -1
+0 x_2_22_0 +0 x_2_22_1 +0 x_2_22_2 +0 x_2_22_3 +0 x_2_11_0_sb +0 x_2_11_1_sb +0 x_2_11_2_sb -1 x_2_11_3_sb +1 p0_2_11 +1 p1_2_11 >= 0
+0 x_2_22_0 +0 x_2_22_1 +0 x_2_22_2 +0 x_2_22_3 +0 x_2_11_0_sb -1 x_2_11_1_sb +0 x_2_11_2_sb +0 x_2_11_3_sb +1 p0_2_11 +1 p1_2_11 >= 0
+0 x_2_22_0 +0 x_2_22_1 +0 x_2_22_2 +0 x_2_22_3 -1 x_2_11_0_sb +0 x_2_11_1_sb +0 x_2_11_2_sb +0 x_2_11_3_sb +1 p0_2_11 +1 p1_2_11 >= 0
+0 x_2_22_0 +0 x_2_22_1 +0 x_2_22_2 +0 x_2_22_3 +1 x_2_11_0_sb +1 x_2_11_1_sb +1 x_2_11_2_sb +1 x_2_11_3_sb +0 p0_2_11 -1 p1_2_11 >= 0
+0 x_2_22_0 +0 x_2_22_1 +0 x_2_22_2 -1 x_2_22_3 +1 x_2_11_0_sb +1 x_2_11_1_sb +0 x_2_11_2_sb +1 x_2_11_3_sb +0 p0_2_11 +1 p1_2_11 >= 0
-1 x_2_22_0 +0 x_2_22_1 -1 x_2_22_2 +0 x_2_22_3 +1 x_2_11_0_sb +0 x_2_11_1_sb +0 x_2_11_2_sb +1 x_2_11_3_sb +0 p0_2_11 -1 p1_2_11 >= -2
+1 x_2_22_0 +0 x_2_22_1 +1 x_2_22_2 +0 x_2_22_3 +1 x_2_11_0_sb +0 x_2_11_1_sb +1 x_2_11_2_sb +0 x_2_11_3_sb +0 p0_2_11 -1 p1_2_11 >= 0
+0 x_2_22_0 +0 x_2_22_1 +0 x_2_22_2 +1 x_2_22_3 +0 x_2_11_0_sb +1 x_2_11_1_sb -1 x_2_11_2_sb -1 x_2_11_3_sb +0 p0_2_11 -1 p1_2_11 >= -2
-1 x_2_22_0 +0 x_2_22_1 +0 x_2_22_2 -1 x_2_22_3 -1 x_2_11_0_sb +0 x_2_11_1_sb +0 x_2_11_2_sb +1 x_2_11_3_sb +0 p0_2_11 -1 p1_2_11 >= -3
+0 x_2_22_0 +0 x_2_22_1 +0 x_2_22_2 +1 x_2_22_3 -1 x_2_11_0_sb -1 x_2_11_1_sb -1 x_2_11_2_sb +0 x_2_11_3_sb +0 p0_2_11 -1 p1_2_11 >= -3
+1 x_2_22_0 +1 x_2_22_1 +0 x_2_22_2 +1 x_2_22_3 +0 x_2_11_0_sb +0 x_2_11_1_sb +0 x_2_11_2_sb +0 x_2_11_3_sb -1 p0_2_11 +0 p1_2_11 >= 0
+0 x_2_22_0 +0 x_2_22_1 +1 x_2_22_2 +1 x_2_22_3 +0 x_2_11_0_sb -1 x_2_11_1_sb +1 x_2_11_2_sb +0 x_2_11_3_sb +0 p0_2_11 -1 p1_2_11 >= -1
+0 x_2_22_0 +1 x_2_22_1 +0 x_2_22_2 -1 x_2_22_3 -1 x_2_11_0_sb +0 x_2_11_1_sb -1 x_2_11_2_sb +0 x_2_11_3_sb +0 p0_2_11 -1 p1_2_11 >= -3
+0 x_2_22_0 +1 x_2_22_1 +1 x_2_22_2 +0 x_2_22_3 +0 x_2_11_0_sb +0 x_2_11_1_sb +1 x_2_11_2_sb -1 x_2_11_3_sb +0 p0_2_11 -1 p1_2_11 >= -1
-1 x_2_22_0 +0 x_2_22_1 -1 x_2_22_2 +0 x_2_22_3 -1 x_2_11_0_sb +0 x_2_11_1_sb +1 x_2_11_2_sb +0 x_2_11_3_sb +0 p0_2_11 -1 p1_2_11 >= -3
+0 x_2_22_0 -1 x_2_22_1 -1 x_2_22_2 +0 x_2_22_3 +0 x_2_11_0_sb +1 x_2_11_1_sb +0 x_2_11_2_sb +1 x_2_11_3_sb +0 p0_2_11 -1 p1_2_11 >= -2
+0 x_2_22_0 -1 x_2_22_1 +0 x_2_22_2 +0 x_2_22_3 +1 x_2_11_0_sb +1 x_2_11_1_sb +0 x_2_11_2_sb +1 x_2_11_3_sb +0 p0_2_11 +1 p1_2_11 >= 0
-1 x_2_22_0 -1 x_2_22_1 +0 x_2_22_2 +1 x_2_22_3 +0 x_2_11_0_sb +1 x_2_11_1_sb +0 x_2_11_2_sb +1 x_2_11_3_sb +0 p0_2_11 -1 p1_2_11 >= -2
+0 x_2_22_0 -1 x_2_22_1 +0 x_2_22_2 +0 x_2_22_3 +1 x_2_11_0_sb +0 x_2_11_1_sb +1 x_2_11_2_sb +1 x_2_11_3_sb +0 p0_2_11 -1 p1_2_11 >= -1
-1 x_2_22_0 +0 x_2_22_1 -1 x_2_22_2 +0 x_2_22_3 +1 x_2_11_0_sb +1 x_2_11_1_sb +0 x_2_11_2_sb +0 x_2_11_3_sb +0 p0_2_11 -1 p1_2_11 >= -2
+0 x_2_22_0 +1 x_2_22_1 -1 x_2_22_2 -1 x_2_22_3 +0 x_2_11_0_sb +0 x_2_11_1_sb +0 x_2_11_2_sb +1 x_2_11_3_sb +0 p0_2_11 -1 p1_2_11 >= -2
-1 x_2_22_0 -1 x_2_22_1 +0 x_2_22_2 -1 x_2_22_3 +0 x_2_11_0_sb +1 x_2_11_1_sb +0 x_2_11_2_sb -1 x_2_11_3_sb +0 p0_2_11 -1 p1_2_11 >= -4
-1 x_2_22_0 +1 x_2_22_1 +0 x_2_22_2 +1 x_2_22_3 +0 x_2_11_0_sb +1 x_2_11_1_sb +0 x_2_11_2_sb +1 x_2_11_3_sb +0 p0_2_11 +1 p1_2_11 >= 0
+0 x_2_22_0 +0 x_2_22_1 +0 x_2_22_2 +0 x_2_22_3 +1 x_2_11_0_sb -1 x_2_11_1_sb +0 x_2_11_2_sb -1 x_2_11_3_sb +0 p0_2_11 +1 p1_2_11 >= -1
+1 x_2_22_0 +0 x_2_22_1 +1 x_2_22_2 +0 x_2_22_3 +1 x_2_11_0_sb -1 x_2_11_1_sb +0 x_2_11_2_sb +0 x_2_11_3_sb +0 p0_2_11 -1 p1_2_11 >= -1
+0 x_2_22_0 +1 x_2_22_1 +0 x_2_22_2 +1 x_2_22_3 +0 x_2_11_0_sb -1 x_2_11_1_sb -1 x_2_11_2_sb +0 x_2_11_3_sb +0 p0_2_11 -1 p1_2_11 >= -2
+1 x_2_22_0 -1 x_2_22_1 +0 x_2_22_2 -1 x_2_22_3 +0 x_2_11_0_sb +0 x_2_11_1_sb +1 x_2_11_2_sb +0 x_2_11_3_sb +0 p0_2_11 +0 p1_2_11 >= -1
+1 x_2_22_0 -1 x_2_22_1 -1 x_2_22_2 +0 x_2_22_3 +0 x_2_11_0_sb +0 x_2_11_1_sb +1 x_2_11_2_sb -1 x_2_11_3_sb +0 p0_2_11 -1 p1_2_11 >= -3
+1 x_2_22_0 -1 x_2_22_1 +0 x_2_22_2 -1 x_2_22_3 +0 x_2_11_0_sb +0 x_2_11_1_sb +0 x_2_11_2_sb +0 x_2_11_3_sb +0 p0_2_11 +1 p1_2_11 >= -1
+1 x_2_22_0 +0 x_2_22_1 +0 x_2_22_2 +0 x_2_22_3 -1 x_2_11_0_sb +1 x_2_11_1_sb +0 x_2_11_2_sb -1 x_2_11_3_sb +0 p0_2_11 +1 p1_2_11 >= -1
+1 x_2_22_0 +0 x_2_22_1 +0 x_2_22_2 +0 x_2_22_3 -1 x_2_11_0_sb -1 x_2_11_1_sb +0 x_2_11_2_sb +1 x_2_11_3_sb +0 p0_2_11 +1 p1_2_11 >= -1
-1 x_2_22_0 -1 x_2_22_1 +0 x_2_22_2 +1 x_2_22_3 +1 x_2_11_0_sb +0 x_2_11_1_sb +0 x_2_11_2_sb +0 x_2_11_3_sb +0 p0_2_11 +1 p1_2_11 >= -1
-1 x_2_22_0 +1 x_2_22_1 +0 x_2_22_2 -1 x_2_22_3 +1 x_2_11_0_sb +0 x_2_11_1_sb +0 x_2_11_2_sb +0 x_2_11_3_sb +0 p0_2_11 +1 p1_2_11 >= -1
+0 x_2_22_0 -1 x_2_22_1 +0 x_2_22_2 -1 x_2_22_3 +0 x_2_11_0_sb -1 x_2_11_1_sb +0 x_2_11_2_sb -1 x_2_11_3_sb +0 p0_2_11 +1 p1_2_11 >= -3
+1 x_2_22_0 +1 x_2_22_1 +0 x_2_22_2 +1 x_2_22_3 +0 x_2_11_0_sb +0 x_2_11_1_sb -1 x_2_11_2_sb +0 x_2_11_3_sb +0 p0_2_11 +0 p1_2_11 >= 0
-1 x_2_22_0 +0 x_2_22_1 +1 x_2_22_2 -1 x_2_22_3 +0 x_2_11_0_sb -1 x_2_11_1_sb -1 x_2_11_2_sb +0 x_2_11_3_sb +0 p0_2_11 -1 p1_2_11 >= -4
+1 x_2_22_0 +1 x_2_22_1 +0 x_2_22_2 -1 x_2_22_3 +1 x_2_11_0_sb +1 x_2_11_1_sb +0 x_2_11_2_sb -1 x_2_11_3_sb +0 p0_2_11 -1 p1_2_11 >= -2
+1 x_2_22_0 +0 x_2_22_1 +1 x_2_22_2 +0 x_2_22_3 +0 x_2_11_0_sb +1 x_2_11_1_sb +1 x_2_11_2_sb +1 x_2_11_3_sb +0 p0_2_11 -1 p1_2_11 >= 0
+1 x_2_22_0 +0 x_2_22_1 -1 x_2_22_2 -1 x_2_22_3 -1 x_2_11_0_sb -1 x_2_11_1_sb +0 x_2_11_2_sb -1 x_2_11_3_sb +0 p0_2_11 -1 p1_2_11 >= -5
+0 x_2_22_0 +0 x_2_22_1 +1 x_2_22_2 +1 x_2_22_3 -1 x_2_11_0_sb +0 x_2_11_1_sb -1 x_2_11_2_sb +0 x_2_11_3_sb +0 p0_2_11 -1 p1_2_11 >= -2
+0 x_2_22_0 +0 x_2_22_1 +1 x_2_22_2 +0 x_2_22_3 +1 x_2_11_0_sb -1 x_2_11_1_sb +0 x_2_11_2_sb -1 x_2_11_3_sb +0 p0_2_11 +0 p1_2_11 >= -1
+0 x_2_22_0 -1 x_2_22_1 +0 x_2_22_2 -1 x_2_22_3 +0 x_2_11_0_sb +1 x_2_11_1_sb +0 x_2_11_2_sb +1 x_2_11_3_sb +0 p0_2_11 +1 p1_2_11 >= -1
+0 x_2_22_0 +1 x_2_22_1 +0 x_2_22_2 +1 x_2_22_3 +0 x_2_11_0_sb -1 x_2_11_1_sb +0 x_2_11_2_sb -1 x_2_11_3_sb +0 p0_2_11 +1 p1_2_11 >= -1
+1 x_2_22_0 -1 x_2_22_1 +1 x_2_22_2 -1 x_2_22_3 +1 x_2_11_0_sb +0 x_2_11_1_sb +0 x_2_11_2_sb +0 x_2_11_3_sb +0 p0_2_11 +0 p1_2_11 >= -1
+1 x_2_22_0 +0 x_2_22_1 +0 x_2_22_2 +0 x_2_22_3 +1 x_2_11_0_sb -1 x_2_11_1_sb +1 x_2_11_2_sb -1 x_2_11_3_sb +0 p0_2_11 +0 p1_2_11 >= -1
+0 x_2_22_0 -1 x_2_22_1 +0 x_2_22_2 -1 x_2_22_3 +1 x_2_11_0_sb -1 x_2_11_1_sb -1 x_2_11_2_sb -1 x_2_11_3_sb +0 p0_2_11 +0 p1_2_11 >= -4
+1 x_2_22_0 +0 x_2_22_1 +0 x_2_22_2 +1 x_2_22_3 +0 x_2_11_0_sb -1 x_2_11_1_sb -1 x_2_11_2_sb +1 x_2_11_3_sb +0 p0_2_11 -1 p1_2_11 >= -2
+0 x_2_22_0 +0 x_2_22_1 -1 x_2_22_2 +1 x_2_22_3 -1 x_2_11_0_sb +1 x_2_11_1_sb +0 x_2_11_2_sb -1 x_2_11_3_sb +0 p0_2_11 -1 p1_2_11 >= -3
+0 x_2_22_0 +1 x_2_22_1 +0 x_2_22_2 +1 x_2_22_3 -1 x_2_11_0_sb -1 x_2_11_1_sb +0 x_2_11_2_sb +1 x_2_11_3_sb +0 p0_2_11 -1 p1_2_11 >= -2
-1 x_2_22_0 +1 x_2_22_1 +0 x_2_22_2 -1 x_2_22_3 +0 x_2_11_0_sb +0 x_2_11_1_sb -1 x_2_11_2_sb +1 x_2_11_3_sb +0 p0_2_11 -1 p1_2_11 >= -3
-1 x_2_22_0 +0 x_2_22_1 +0 x_2_22_2 +0 x_2_22_3 -1 x_2_11_0_sb +1 x_2_11_1_sb +0 x_2_11_2_sb -1 x_2_11_3_sb +0 p0_2_11 -1 p1_2_11 >= -3
+0 x_2_22_0 +0 x_2_22_1 -1 x_2_22_2 +0 x_2_22_3 +1 x_2_11_0_sb +1 x_2_11_1_sb +0 x_2_11_2_sb +1 x_2_11_3_sb +0 p0_2_11 +0 p1_2_11 >= 0
+0 x_2_24_0 +0 x_2_24_1 +0 x_2_24_2 +0 x_2_24_3 +0 x_2_12_0_sb +0 x_2_12_1_sb +0 x_2_12_2_sb +0 x_2_12_3_sb -1 p0_2_12 -1 p1_2_12 >= -1
+0 x_2_24_0 +0 x_2_24_1 +0 x_2_24_2 +0 x_2_24_3 +0 x_2_12_0_sb +0 x_2_12_1_sb +0 x_2_12_2_sb -1 x_2_12_3_sb +1 p0_2_12 +1 p1_2_12 >= 0
+0 x_2_24_0 +0 x_2_24_1 +0 x_2_24_2 +0 x_2_24_3 +0 x_2_12_0_sb -1 x_2_12_1_sb +0 x_2_12_2_sb +0 x_2_12_3_sb +1 p0_2_12 +1 p1_2_12 >= 0
+0 x_2_24_0 +0 x_2_24_1 +0 x_2_24_2 +0 x_2_24_3 -1 x_2_12_0_sb +0 x_2_12_1_sb +0 x_2_12_2_sb +0 x_2_12_3_sb +1 p0_2_12 +1 p1_2_12 >= 0
+0 x_2_24_0 +0 x_2_24_1 +0 x_2_24_2 +0 x_2_24_3 +1 x_2_12_0_sb +1 x_2_12_1_sb +1 x_2_12_2_sb +1 x_2_12_3_sb +0 p0_2_12 -1 p1_2_12 >= 0
+0 x_2_24_0 +0 x_2_24_1 +0 x_2_24_2 -1 x_2_24_3 +1 x_2_12_0_sb +1 x_2_12_1_sb +0 x_2_12_2_sb +1 x_2_12_3_sb +0 p0_2_12 +1 p1_2_12 >= 0
-1 x_2_24_0 +0 x_2_24_1 -1 x_2_24_2 +0 x_2_24_3 +1 x_2_12_0_sb +0 x_2_12_1_sb +0 x_2_12_2_sb +1 x_2_12_3_sb +0 p0_2_12 -1 p1_2_12 >= -2
+1 x_2_24_0 +0 x_2_24_1 +1 x_2_24_2 +0 x_2_24_3 +1 x_2_12_0_sb +0 x_2_12_1_sb +1 x_2_12_2_sb +0 x_2_12_3_sb +0 p0_2_12 -1 p1_2_12 >= 0
+0 x_2_24_0 +0 x_2_24_1 +0 x_2_24_2 +1 x_2_24_3 +0 x_2_12_0_sb +1 x_2_12_1_sb -1 x_2_12_2_sb -1 x_2_12_3_sb +0 p0_2_12 -1 p1_2_12 >= -2
-1 x_2_24_0 +0 x_2_24_1 +0 x_2_24_2 -1 x_2_24_3 -1 x_2_12_0_sb +0 x_2_12_1_sb +0 x_2_12_2_sb +1 x_2_12_3_sb +0 p0_2_12 -1 p1_2_12 >= -3
+0 x_2_24_0 +0 x_2_24_1 +0 x_2_24_2 +1 x_2_24_3 -1 x_2_12_0_sb -1 x_2_12_1_sb -1 x_2_12_2_sb +0 x_2_12_3_sb +0 p0_2_12 -1 p1_2_12 >= -3
+1 x_2_24_0 +1 x_2_24_1 +0 x_2_24_2 +1 x_2_24_3 +0 x_2_12_0_sb +0 x_2_12_1_sb +0 x_2_12_2_sb +0 x_2_12_3_sb -1 p0_2_12 +0 p1_2_12 >= 0
+0 x_2_24_0 +0 x_2_24_1 +1 x_2_24_2 +1 x_2_24_3 +0 x_2_12_0_sb -1 x_2_12_1_sb +1 x_2_12_2_sb +0 x_2_12_3_sb +0 p0_2_12 -1 p1_2_12 >= -1
+0 x_2_24_0 +1 x_2_24_1 +0 x_2_24_2 -1 x_2_24_3 -1 x_2_12_0_sb +0 x_2_12_1_sb -1 x_2_12_2_sb +0 x_2_12_3_sb +0 p0_2_12 -1 p1_2_12 >= -3
+0 x_2_24_0 +1 x_2_24_1 +1 x_2_24_2 +0 x_2_24_3 +0 x_2_12_0_sb +0 x_2_12_1_sb +1 x_2_12_2_sb -1 x_2_12_3_sb +0 p0_2_12 -1 p1_2_12 >= -1
-1 x_2_24_0 +0 x_2_24_1 -1 x_2_24_2 +0 x_2_24_3 -1 x_2_12_0_sb +0 x_2_12_1_sb +1 x_2_12_2_sb +0 x_2_12_3_sb +0 p0_2_12 -1 p1_2_12 >= -3
+0 x_2_24_0 -1 x_2_24_1 -1 x_2_24_2 +0 x_2_24_3 +0 x_2_12_0_sb +1 x_2_12_1_sb +0 x_2_12_2_sb +1 x_2_12_3_sb +0 p0_2_12 -1 p1_2_12 >= -2
+0 x_2_24_0 -1 x_2_24_1 +0 x_2_24_2 +0 x_2_24_3 +1 x_2_12_0_sb +1 x_2_12_1_sb +0 x_2_12_2_sb +1 x_2_12_3_sb +0 p0_2_12 +1 p1_2_12 >= 0
-1 x_2_24_0 -1 x_2_24_1 +0 x_2_24_2 +1 x_2_24_3 +0 x_2_12_0_sb +1 x_2_12_1_sb +0 x_2_12_2_sb +1 x_2_12_3_sb +0 p0_2_12 -1 p1_2_12 >= -2
+0 x_2_24_0 -1 x_2_24_1 +0 x_2_24_2 +0 x_2_24_3 +1 x_2_12_0_sb +0 x_2_12_1_sb +1 x_2_12_2_sb +1 x_2_12_3_sb +0 p0_2_12 -1 p1_2_12 >= -1
-1 x_2_24_0 +0 x_2_24_1 -1 x_2_24_2 +0 x_2_24_3 +1 x_2_12_0_sb +1 x_2_12_1_sb +0 x_2_12_2_sb +0 x_2_12_3_sb +0 p0_2_12 -1 p1_2_12 >= -2
+0 x_2_24_0 +1 x_2_24_1 -1 x_2_24_2 -1 x_2_24_3 +0 x_2_12_0_sb +0 x_2_12_1_sb +0 x_2_12_2_sb +1 x_2_12_3_sb +0 p0_2_12 -1 p1_2_12 >= -2
-1 x_2_24_0 -1 x_2_24_1 +0 x_2_24_2 -1 x_2_24_3 +0 x_2_12_0_sb +1 x_2_12_1_sb +0 x_2_12_2_sb -1 x_2_12_3_sb +0 p0_2_12 -1 p1_2_12 >= -4
-1 x_2_24_0 +1 x_2_24_1 +0 x_2_24_2 +1 x_2_24_3 +0 x_2_12_0_sb +1 x_2_12_1_sb +0 x_2_12_2_sb +1 x_2_12_3_sb +0 p0_2_12 +1 p1_2_12 >= 0
+0 x_2_24_0 +0 x_2_24_1 +0 x_2_24_2 +0 x_2_24_3 +1 x_2_12_0_sb -1 x_2_12_1_sb +0 x_2_12_2_sb -1 x_2_12_3_sb +0 p0_2_12 +1 p1_2_12 >= -1
+1 x_2_24_0 +0 x_2_24_1 +1 x_2_24_2 +0 x_2_24_3 +1 x_2_12_0_sb -1 x_2_12_1_sb +0 x_2_12_2_sb +0 x_2_12_3_sb +0 p0_2_12 -1 p1_2_12 >= -1
+0 x_2_24_0 +1 x_2_24_1 +0 x_2_24_2 +1 x_2_24_3 +0 x_2_12_0_sb -1 x_2_12_1_sb -1 x_2_12_2_sb +0 x_2_12_3_sb +0 p0_2_12 -1 p1_2_12 >= -2
+1 x_2_24_0 -1 x_2_24_1 +0 x_2_24_2 -1 x_2_24_3 +0 x_2_12_0_sb +0 x_2_12_1_sb +1 x_2_12_2_sb +0 x_2_12_3_sb +0 p0_2_12 +0 p1_2_12 >= -1
+1 x_2_24_0 -1 x_2_24_1 -1 x_2_24_2 +0 x_2_24_3 +0 x_2_12_0_sb +0 x_2_12_1_sb +1 x_2_12_2_sb -1 x_2_12_3_sb +0 p0_2_12 -1 p1_2_12 >= -3
+1 x_2_24_0 -1 x_2_24_1 +0 x_2_24_2 -1 x_2_24_3 +0 x_2_12_0_sb +0 x_2_12_1_sb +0 x_2_12_2_sb +0 x_2_12_3_sb +0 p0_2_12 +1 p1_2_12 >= -1
+1 x_2_24_0 +0 x_2_24_1 +0 x_2_24_2 +0 x_2_24_3 -1 x_2_12_0_sb +1 x_2_12_1_sb +0 x_2_12_2_sb -1 x_2_12_3_sb +0 p0_2_12 +1 p1_2_12 >= -1
+1 x_2_24_0 +0 x_2_24_1 +0 x_2_24_2 +0 x_2_24_3 -1 x_2_12_0_sb -1 x_2_12_1_sb +0 x_2_12_2_sb +1 x_2_12_3_sb +0 p0_2_12 +1 p1_2_12 >= -1
-1 x_2_24_0 -1 x_2_24_1 +0 x_2_24_2 +1 x_2_24_3 +1 x_2_12_0_sb +0 x_2_12_1_sb +0 x_2_12_2_sb +0 x_2_12_3_sb +0 p0_2_12 +1 p1_2_12 >= -1
-1 x_2_24_0 +1 x_2_24_1 +0 x_2_24_2 -1 x_2_24_3 +1 x_2_12_0_sb +0 x_2_12_1_sb +0 x_2_12_2_sb +0 x_2_12_3_sb +0 p0_2_12 +1 p1_2_12 >= -1
+0 x_2_24_0 -1 x_2_24_1 +0 x_2_24_2 -1 x_2_24_3 +0 x_2_12_0_sb -1 x_2_12_1_sb +0 x_2_12_2_sb -1 x_2_12_3_sb +0 p0_2_12 +1 p1_2_12 >= -3
+1 x_2_24_0 +1 x_2_24_1 +0 x_2_24_2 +1 x_2_24_3 +0 x_2_12_0_sb +0 x_2_12_1_sb -1 x_2_12_2_sb +0 x_2_12_3_sb +0 p0_2_12 +0 p1_2_12 >= 0
-1 x_2_24_0 +0 x_2_24_1 +1 x_2_24_2 -1 x_2_24_3 +0 x_2_12_0_sb -1 x_2_12_1_sb -1 x_2_12_2_sb +0 x_2_12_3_sb +0 p0_2_12 -1 p1_2_12 >= -4
+1 x_2_24_0 +1 x_2_24_1 +0 x_2_24_2 -1 x_2_24_3 +1 x_2_12_0_sb +1 x_2_12_1_sb +0 x_2_12_2_sb -1 x_2_12_3_sb +0 p0_2_12 -1 p1_2_12 >= -2
+1 x_2_24_0 +0 x_2_24_1 +1 x_2_24_2 +0 x_2_24_3 +0 x_2_12_0_sb +1 x_2_12_1_sb +1 x_2_12_2_sb +1 x_2_12_3_sb +0 p0_2_12 -1 p1_2_12 >= 0
+1 x_2_24_0 +0 x_2_24_1 -1 x_2_24_2 -1 x_2_24_3 -1 x_2_12_0_sb -1 x_2_12_1_sb +0 x_2_12_2_sb -1 x_2_12_3_sb +0 p0_2_12 -1 p1_2_12 >= -5
+0 x_2_24_0 +0 x_2_24_1 +1 x_2_24_2 +1 x_2_24_3 -1 x_2_12_0_sb +0 x_2_12_1_sb -1 x_2_12_2_sb +0 x_2_12_3_sb +0 p0_2_12 -1 p1_2_12 >= -2
+0 x_2_24_0 +0 x_2_24_1 +1 x_2_24_2 +0 x_2_24_3 +1 x_2_12_0_sb -1 x_2_12_1_sb +0 x_2_12_2_sb -1 x_2_12_3_sb +0 p0_2_12 +0 p1_2_12 >= -1
+0 x_2_24_0 -1 x_2_24_1 +0 x_2_24_2 -1 x_2_24_3 +0 x_2_12_0_sb +1 x_2_12_1_sb +0 x_2_12_2_sb +1 x_2_12_3_sb +0 p0_2_12 +1 p1_2_12 >= -1
+0 x_2_24_0 +1 x_2_24_1 +0 x_2_24_2 +1 x_2_24_3 +0 x_2_12_0_sb -1 x_2_12_1_sb +0 x_2_12_2_sb -1 x_2_12_3_sb +0 p0_2_12 +1 p1_2_12 >= -1
+1 x_2_24_0 -1 x_2_24_1 +1 x_2_24_2 -1 x_2_24_3 +1 x_2_12_0_sb +0 x_2_12_1_sb +0 x_2_12_2_sb +0 x_2_12_3_sb +0 p0_2_12 +0 p1_2_12 >= -1
+1 x_2_24_0 +0 x_2_24_1 +0 x_2_24_2 +0 x_2_24_3 +1 x_2_12_0_sb -1 x_2_12_1_sb +1 x_2_12_2_sb -1 x_2_12_3_sb +0 p0_2_12 +0 p1_2_12 >= -1
+0 x_2_24_0 -1 x_2_24_1 +0 x_2_24_2 -1 x_2_24_3 +1 x_2_12_0_sb -1 x_2_12_1_sb -1 x_2_12_2_sb -1 x_2_12_3_sb +0 p0_2_12 +0 p1_2_12 >= -4
+1 x_2_24_0 +0 x_2_24_1 +0 x_2_24_2 +1 x_2_24_3 +0 x_2_12_0_sb -1 x_2_12_1_sb -1 x_2_12_2_sb +1 x_2_12_3_sb +0 p0_2_12 -1 p1_2_12 >= -2
+0 x_2_24_0 +0 x_2_24_1 -1 x_2_24_2 +1 x_2_24_3 -1 x_2_12_0_sb +1 x_2_12_1_sb +0 x_2_12_2_sb -1 x_2_12_3_sb +0 p0_2_12 -1 p1_2_12 >= -3
+0 x_2_24_0 +1 x_2_24_1 +0 x_2_24_2 +1 x_2_24_3 -1 x_2_12_0_sb -1 x_2_12_1_sb +0 x_2_12_2_sb +1 x_2_12_3_sb +0 p0_2_12 -1 p1_2_12 >= -2
-1 x_2_24_0 +1 x_2_24_1 +0 x_2_24_2 -1 x_2_24_3 +0 x_2_12_0_sb +0 x_2_12_1_sb -1 x_2_12_2_sb +1 x_2_12_3_sb +0 p0_2_12 -1 p1_2_12 >= -3
-1 x_2_24_0 +0 x_2_24_1 +0 x_2_24_2 +0 x_2_24_3 -1 x_2_12_0_sb +1 x_2_12_1_sb +0 x_2_12_2_sb -1 x_2_12_3_sb +0 p0_2_12 -1 p1_2_12 >= -3
+0 x_2_24_0 +0 x_2_24_1 -1 x_2_24_2 +0 x_2_24_3 +1 x_2_12_0_sb +1 x_2_12_1_sb +0 x_2_12_2_sb +1 x_2_12_3_sb +0 p0_2_12 +0 p1_2_12 >= 0
+0 x_2_26_0 +0 x_2_26_1 +0 x_2_26_2 +0 x_2_26_3 +0 x_2_13_0_sb +0 x_2_13_1_sb +0 x_2_13_2_sb +0 x_2_13_3_sb -1 p0_2_13 -1 p1_2_13 >= -1
+0 x_2_26_0 +0 x_2_26_1 +0 x_2_26_2 +0 x_2_26_3 +0 x_2_13_0_sb +0 x_2_13_1_sb +0 x_2_13_2_sb -1 x_2_13_3_sb +1 p0_2_13 +1 p1_2_13 >= 0
+0 x_2_26_0 +0 x_2_26_1 +0 x_2_26_2 +0 x_2_26_3 +0 x_2_13_0_sb -1 x_2_13_1_sb +0 x_2_13_2_sb +0 x_2_13_3_sb +1 p0_2_13 +1 p1_2_13 >= 0
+0 x_2_26_0 +0 x_2_26_1 +0 x_2_26_2 +0 x_2_26_3 -1 x_2_13_0_sb +0 x_2_13_1_sb +0 x_2_13_2_sb +0 x_2_13_3_sb +1 p0_2_13 +1 p1_2_13 >= 0
+0 x_2_26_0 +0 x_2_26_1 +0 x_2_26_2 +0 x_2_26_3 +1 x_2_13_0_sb +1 x_2_13_1_sb +1 x_2_13_2_sb +1 x_2_13_3_sb +0 p0_2_13 -1 p1_2_13 >= 0
+0 x_2_26_0 +0 x_2_26_1 +0 x_2_26_2 -1 x_2_26_3 +1 x_2_13_0_sb +1 x_2_13_1_sb +0 x_2_13_2_sb +1 x_2_13_3_sb +0 p0_2_13 +1 p1_2_13 >= 0
-1 x_2_26_0 +0 x_2_26_1 -1 x_2_26_2 +0 x_2_26_3 +1 x_2_13_0_sb +0 x_2_13_1_sb +0 x_2_13_2_sb +1 x_2_13_3_sb +0 p0_2_13 -1 p1_2_13 >= -2
+1 x_2_26_0 +0 x_2_26_1 +1 x_2_26_2 +0 x_2_26_3 +1 x_2_13_0_sb +0 x_2_13_1_sb +1 x_2_13_2_sb +0 x_2_13_3_sb +0 p0_2_13 -1 p1_2_13 >= 0
+0 x_2_26_0 +0 x_2_26_1 +0 x_2_26_2 +1 x_2_26_3 +0 x_2_13_0_sb +1 x_2_13_1_sb -1 x_2_13_2_sb -1 x_2_13_3_sb +0 p0_2_13 -1 p1_2_13 >= -2
-1 x_2_26_0 +0 x_2_26_1 +0 x_2_26_2 -1 x_2_26_3 -1 x_2_13_0_sb +0 x_2_13_1_sb +0 x_2_13_2_sb +1 x_2_13_3_sb +0 p0_2_13 -1 p1_2_13 >= -3
+0 x_2_26_0 +0 x_2_26_1 +0 x_2_26_2 +1 x_2_26_3 -1 x_2_13_0_sb -1 x_2_13_1_sb -1 x_2_13_2_sb +0 x_2_13_3_sb +0 p0_2_13 -1 p1_2_13 >= -3
+1 x_2_26_0 +1 x_2_26_1 +0 x_2_26_2 +1 x_2_26_3 +0 x_2_13_0_sb +0 x_2_13_1_sb +0 x_2_13_2_sb +0 x_2_13_3_sb -1 p0_2_13 +0 p1_2_13 >= 0
+0 x_2_26_0 +0 x_2_26_1 +1 x_2_26_2 +1 x_2_26_3 +0 x_2_13_0_sb -1 x_2_13_1_sb +1 x_2_13_2_sb +0 x_2_13_3_sb +0 p0_2_13 -1 p1_2_13 >= -1
+0 x_2_26_0 +1 x_2_26_1 +0 x_2_26_2 -1 x_2_26_3 -1 x_2_13_0_sb +0 x_2_13_1_sb -1 x_2_13_2_sb +0 x_2_13_3_sb +0 p0_2_13 -1 p1_2_13 >= -3
+0 x_2_26_0 +1 x_2_26_1 +1 x_2_26_2 +0 x_2_26_3 +0 x_2_13_0_sb +0 x_2_13_1_sb +1 x_2_13_2_sb -1 x_2_13_3_sb +0 p0_2_13 -1 p1_2_13 >= -1
-1 x_2_26_0 +0 x_2_26_1 -1 x_2_26_2 +0 x_2_26_3 -1 x_2_13_0_sb +0 x_2_13_1_sb +1 x_2_13_2_sb +0 x_2_13_3_sb +0 p0_2_13 -1 p1_2_13 >= -3
+0 x_2_26_0 -1 x_2_26_1 -1 x_2_26_2 +0 x_2_26_3 +0 x_2_13_0_sb +1 x_2_13_1_sb +0 x_2_13_2_sb +1 x_2_13_3_sb +0 p0_2_13 -1 p1_2_13 >= -2
+0 x_2_26_0 -1 x_2_26_1 +0 x_2_26_2 +0 x_2_26_3 +1 x_2_13_0_sb +1 x_2_13_1_sb +0 x_2_13_2_sb +1 x_2_13_3_sb +0 p0_2_13 +1 p1_2_13 >= 0
-1 x_2_26_0 -1 x_2_26_1 +0 x_2_26_2 +1 x_2_26_3 +0 x_2_13_0_sb +1 x_2_13_1_sb +0 x_2_13_2_sb +1 x_2_13_3_sb +0 p0_2_13 -1 p1_2_13 >= -2
+0 x_2_26_0 -1 x_2_26_1 +0 x_2_26_2 +0 x_2_26_3 +1 x_2_13_0_sb +0 x_2_13_1_sb +1 x_2_13_2_sb +1 x_2_13_3_sb +0 p0_2_13 -1 p1_2_13 >= -1
-1 x_2_26_0 +0 x_2_26_1 -1 x_2_26_2 +0 x_2_26_3 +1 x_2_13_0_sb +1 x_2_13_1_sb +0 x_2_13_2_sb +0 x_2_13_3_sb +0 p0_2_13 -1 p1_2_13 >= -2
+0 x_2_26_0 +1 x_2_26_1 -1 x_2_26_2 -1 x_2_26_3 +0 x_2_13_0_sb +0 x_2_13_1_sb +0 x_2_13_2_sb +1 x_2_13_3_sb +0 p0_2_13 -1 p1_2_13 >= -2
-1 x_2_26_0 -1 x_2_26_1 +0 x_2_26_2 -1 x_2_26_3 +0 x_2_13_0_sb +1 x_2_13_1_sb +0 x_2_13_2_sb -1 x_2_13_3_sb +0 p0_2_13 -1 p1_2_13 >= -4
-1 x_2_26_0 +1 x_2_26_1 +0 x_2_26_2 +1 x_2_26_3 +0 x_2_13_0_sb +1 x_2_13_1_sb +0 x_2_13_2_sb +1 x_2_13_3_sb +0 p0_2_13 +1 p1_2_13 >= 0
+0 x_2_26_0 +0 x_2_26_1 +0 x_2_26_2 +0 x_2_26_3 +1 x_2_13_0_sb -1 x_2_13_1_sb +0 x_2_13_2_sb -1 x_2_13_3_sb +0 p0_2_13 +1 p1_2_13 >= -1
+1 x_2_26_0 +0 x_2_26_1 +1 x_2_26_2 +0 x_2_26_3 +1 x_2_13_0_sb -1 x_2_13_1_sb +0 x_2_13_2_sb +0 x_2_13_3_sb +0 p0_2_13 -1 p1_2_13 >= -1
+0 x_2_26_0 +1 x_2_26_1 +0 x_2_26_2 +1 x_2_26_3 +0 x_2_13_0_sb -1 x_2_13_1_sb -1 x_2_13_2_sb +0 x_2_13_3_sb +0 p0_2_13 -1 p1_2_13 >= -2
+1 x_2_26_0 -1 x_2_26_1 +0 x_2_26_2 -1 x_2_26_3 +0 x_2_13_0_sb +0 x_2_13_1_sb +1 x_2_13_2_sb +0 x_2_13_3_sb +0 p0_2_13 +0 p1_2_13 >= -1
+1 x_2_26_0 -1 x_2_26_1 -1 x_2_26_2 +0 x_2_26_3 +0 x_2_13_0_sb +0 x_2_13_1_sb +1 x_2_13_2_sb -1 x_2_13_3_sb +0 p0_2_13 -1 p1_2_13 >= -3
+1 x_2_26_0 -1 x_2_26_1 +0 x_2_26_2 -1 x_2_26_3 +0 x_2_13_0_sb +0 x_2_13_1_sb +0 x_2_13_2_sb +0 x_2_13_3_sb +0 p0_2_13 +1 p1_2_13 >= -1
+1 x_2_26_0 +0 x_2_26_1 +0 x_2_26_2 +0 x_2_26_3 -1 x_2_13_0_sb +1 x_2_13_1_sb +0 x_2_13_2_sb -1 x_2_13_3_sb +0 p0_2_13 +1 p1_2_13 >= -1
+1 x_2_26_0 +0 x_2_26_1 +0 x_2_26_2 +0 x_2_26_3 -1 x_2_13_0_sb -1 x_2_13_1_sb +0 x_2_13_2_sb +1 x_2_13_3_sb +0 p0_2_13 +1 p1_2_13 >= -1
-1 x_2_26_0 -1 x_2_26_1 +0 x_2_26_2 +1 x_2_26_3 +1 x_2_13_0_sb +0 x_2_13_1_sb +0 x_2_13_2_sb +0 x_2_13_3_sb +0 p0_2_13 +1 p1_2_13 >= -1
-1 x_2_26_0 +1 x_2_26_1 +0 x_2_26_2 -1 x_2_26_3 +1 x_2_13_0_sb +0 x_2_13_1_sb +0 x_2_13_2_sb +0 x_2_13_3_sb +0 p0_2_13 +1 p1_2_13 >= -1
+0 x_2_26_0 -1 x_2_26_1 +0 x_2_26_2 -1 x_2_26_3 +0 x_2_13_0_sb -1 x_2_13_1_sb +0 x_2_13_2_sb -1 x_2_13_3_sb +0 p0_2_13 +1 p1_2_13 >= -3
+1 x_2_26_0 +1 x_2_26_1 +0 x_2_26_2 +1 x_2_26_3 +0 x_2_13_0_sb +0 x_2_13_1_sb -1 x_2_13_2_sb +0 x_2_13_3_sb +0 p0_2_13 +0 p1_2_13 >= 0
-1 x_2_26_0 +0 x_2_26_1 +1 x_2_26_2 -1 x_2_26_3 +0 x_2_13_0_sb -1 x_2_13_1_sb -1 x_2_13_2_sb +0 x_2_13_3_sb +0 p0_2_13 -1 p1_2_13 >= -4
+1 x_2_26_0 +1 x_2_26_1 +0 x_2_26_2 -1 x_2_26_3 +1 x_2_13_0_sb +1 x_2_13_1_sb +0 x_2_13_2_sb -1 x_2_13_3_sb +0 p0_2_13 -1 p1_2_13 >= -2
+1 x_2_26_0 +0 x_2_26_1 +1 x_2_26_2 +0 x_2_26_3 +0 x_2_13_0_sb +1 x_2_13_1_sb +1 x_2_13_2_sb +1 x_2_13_3_sb +0 p0_2_13 -1 p1_2_13 >= 0
+1 x_2_26_0 +0 x_2_26_1 -1 x_2_26_2 -1 x_2_26_3 -1 x_2_13_0_sb -1 x_2_13_1_sb +0 x_2_13_2_sb -1 x_2_13_3_sb +0 p0_2_13 -1 p1_2_13 >= -5
+0 x_2_26_0 +0 x_2_26_1 +1 x_2_26_2 +1 x_2_26_3 -1 x_2_13_0_sb +0 x_2_13_1_sb -1 x_2_13_2_sb +0 x_2_13_3_sb +0 p0_2_13 -1 p1_2_13 >= -2
+0 x_2_26_0 +0 x_2_26_1 +1 x_2_26_2 +0 x_2_26_3 +1 x_2_13_0_sb -1 x_2_13_1_sb +0 x_2_13_2_sb -1 x_2_13_3_sb +0 p0_2_13 +0 p1_2_13 >= -1
+0 x_2_26_0 -1 x_2_26_1 +0 x_2_26_2 -1 x_2_26_3 +0 x_2_13_0_sb +1 x_2_13_1_sb +0 x_2_13_2_sb +1 x_2_13_3_sb +0 p0_2_13 +1 p1_2_13 >= -1
+0 x_2_26_0 +1 x_2_26_1 +0 x_2_26_2 +1 x_2_26_3 +0 x_2_13_0_sb -1 x_2_13_1_sb +0 x_2_13_2_sb -1 x_2_13_3_sb +0 p0_2_13 +1 p1_2_13 >= -1
+1 x_2_26_0 -1 x_2_26_1 +1 x_2_26_2 -1 x_2_26_3 +1 x_2_13_0_sb +0 x_2_13_1_sb +0 x_2_13_2_sb +0 x_2_13_3_sb +0 p0_2_13 +0 p1_2_13 >= -1
+1 x_2_26_0 +0 x_2_26_1 +0 x_2_26_2 +0 x_2_26_3 +1 x_2_13_0_sb -1 x_2_13_1_sb +1 x_2_13_2_sb -1 x_2_13_3_sb +0 p0_2_13 +0 p1_2_13 >= -1
+0 x_2_26_0 -1 x_2_26_1 +0 x_2_26_2 -1 x_2_26_3 +1 x_2_13_0_sb -1 x_2_13_1_sb -1 x_2_13_2_sb -1 x_2_13_3_sb +0 p0_2_13 +0 p1_2_13 >= -4
+1 x_2_26_0 +0 x_2_26_1 +0 x_2_26_2 +1 x_2_26_3 +0 x_2_13_0_sb -1 x_2_13_1_sb -1 x_2_13_2_sb +1 x_2_13_3_sb +0 p0_2_13 -1 p1_2_13 >= -2
+0 x_2_26_0 +0 x_2_26_1 -1 x_2_26_2 +1 x_2_26_3 -1 x_2_13_0_sb +1 x_2_13_1_sb +0 x_2_13_2_sb -1 x_2_13_3_sb +0 p0_2_13 -1 p1_2_13 >= -3
+0 x_2_26_0 +1 x_2_26_1 +0 x_2_26_2 +1 x_2_26_3 -1 x_2_13_0_sb -1 x_2_13_1_sb +0 x_2_13_2_sb +1 x_2_13_3_sb +0 p0_2_13 -1 p1_2_13 >= -2
-1 x_2_26_0 +1 x_2_26_1 +0 x_2_26_2 -1 x_2_26_3 +0 x_2_13_0_sb +0 x_2_13_1_sb -1 x_2_13_2_sb +1 x_2_13_3_sb +0 p0_2_13 -1 p1_2_13 >= -3
-1 x_2_26_0 +0 x_2_26_1 +0 x_2_26_2 +0 x_2_26_3 -1 x_2_13_0_sb +1 x_2_13_1_sb +0 x_2_13_2_sb -1 x_2_13_3_sb +0 p0_2_13 -1 p1_2_13 >= -3
+0 x_2_26_0 +0 x_2_26_1 -1 x_2_26_2 +0 x_2_26_3 +1 x_2_13_0_sb +1 x_2_13_1_sb +0 x_2_13_2_sb +1 x_2_13_3_sb +0 p0_2_13 +0 p1_2_13 >= 0
+0 x_2_28_0 +0 x_2_28_1 +0 x_2_28_2 +0 x_2_28_3 +0 x_2_14_0_sb +0 x_2_14_1_sb +0 x_2_14_2_sb +0 x_2_14_3_sb -1 p0_2_14 -1 p1_2_14 >= -1
+0 x_2_28_0 +0 x_2_28_1 +0 x_2_28_2 +0 x_2_28_3 +0 x_2_14_0_sb +0 x_2_14_1_sb +0 x_2_14_2_sb -1 x_2_14_3_sb +1 p0_2_14 +1 p1_2_14 >= 0
+0 x_2_28_0 +0 x_2_28_1 +0 x_2_28_2 +0 x_2_28_3 +0 x_2_14_0_sb -1 x_2_14_1_sb +0 x_2_14_2_sb +0 x_2_14_3_sb +1 p0_2_14 +1 p1_2_14 >= 0
+0 x_2_28_0 +0 x_2_28_1 +0 x_2_28_2 +0 x_2_28_3 -1 x_2_14_0_sb +0 x_2_14_1_sb +0 x_2_14_2_sb +0 x_2_14_3_sb +1 p0_2_14 +1 p1_2_14 >= 0
+0 x_2_28_0 +0 x_2_28_1 +0 x_2_28_2 +0 x_2_28_3 +1 x_2_14_0_sb +1 x_2_14_1_sb +1 x_2_14_2_sb +1 x_2_14_3_sb +0 p0_2_14 -1 p1_2_14 >= 0
+0 x_2_28_0 +0 x_2_28_1 +0 x_2_28_2 -1 x_2_28_3 +1 x_2_14_0_sb +1 x_2_14_1_sb +0 x_2_14_2_sb +1 x_2_14_3_sb +0 p0_2_14 +1 p1_2_14 >= 0
-1 x_2_28_0 +0 x_2_28_1 -1 x_2_28_2 +0 x_2_28_3 +1 x_2_14_0_sb +0 x_2_14_1_sb +0 x_2_14_2_sb +1 x_2_14_3_sb +0 p0_2_14 -1 p1_2_14 >= -2
+1 x_2_28_0 +0 x_2_28_1 +1 x_2_28_2 +0 x_2_28_3 +1 x_2_14_0_sb +0 x_2_14_1_sb +1 x_2_14_2_sb +0 x_2_14_3_sb +0 p0_2_14 -1 p1_2_14 >= 0
+0 x_2_28_0 +0 x_2_28_1 +0 x_2_28_2 +1 x_2_28_3 +0 x_2_14_0_sb +1 x_2_14_1_sb -1 x_2_14_2_sb -1 x_2_14_3_sb +0 p0_2_14 -1 p1_2_14 >= -2
-1 x_2_28_0 +0 x_2_28_1 +0 x_2_28_2 -1 x_2_28_3 -1 x_2_14_0_sb +0 x_2_14_1_sb +0 x_2_14_2_sb +1 x_2_14_3_sb +0 p0_2_14 -1 p1_2_14 >= -3
+0 x_2_28_0 +0 x_2_28_1 +0 x_2_28_2 +1 x_2_28_3 -1 x_2_14_0_sb -1 x_2_14_1_sb -1 x_2_14_2_sb +0 x_2_14_3_sb +0 p0_2_14 -1 p1_2_14 >= -3
+1 x_2_28_0 +1 x_2_28_1 +0 x_2_28_2 +1 x_2_28_3 +0 x_2_14_0_sb +0 x_2_14_1_sb +0 x_2_14_2_sb +0 x_2_14_3_sb -1 p0_2_14 +0 p1_2_14 >= 0
+0 x_2_28_0 +0 x_2_28_1 +1 x_2_28_2 +1 x_2_28_3 +0 x_2_14_0_sb -1 x_2_14_1_sb +1 x_2_14_2_sb +0 x_2_14_3_sb +0 p0_2_14 -1 p1_2_14 >= -1
+0 x_2_28_0 +1 x_2_28_1 +0 x_2_28_2 -1 x_2_28_3 -1 x_2_14_0_sb +0 x_2_14_1_sb -1 x_2_14_2_sb +0 x_2_14_3_sb +0 p0_2_14 -1 p1_2_14 >= -3
+0 x_2_28_0 +1 x_2_28_1 +1 x_2_28_2 +0 x_2_28_3 +0 x_2_14_0_sb +0 x_2_14_1_sb +1 x_2_14_2_sb -1 x_2_14_3_sb +0 p0_2_14 -1 p1_2_14 >= -1
-1 x_2_28_0 +0 x_2_28_1 -1 x_2_28_2 +0 x_2_28_3 -1 x_2_14_0_sb +0 x_2_14_1_sb +1 x_2_14_2_sb +0 x_2_14_3_sb +0 p0_2_14 -1 p1_2_14 >= -3
+0 x_2_28_0 -1 x_2_28_1 -1 x_2_28_2 +0 x_2_28_3 +0 x_2_14_0_sb +1 x_2_14_1_sb +0 x_2_14_2_sb +1 x_2_14_3_sb +0 p0_2_14 -1 p1_2_14 >= -2
+0 x_2_28_0 -1 x_2_28_1 +0 x_2_28_2 +0 x_2_28_3 +1 x_2_14_0_sb +1 x_2_14_1_sb +0 x_2_14_2_sb +1 x_2_14_3_sb +0 p0_2_14 +1 p1_2_14 >= 0
-1 x_2_28_0 -1 x_2_28_1 +0 x_2_28_2 +1 x_2_28_3 +0 x_2_14_0_sb +1 x_2_14_1_sb +0 x_2_14_2_sb +1 x_2_14_3_sb +0 p0_2_14 -1 p1_2_14 >= -2
+0 x_2_28_0 -1 x_2_28_1 +0 x_2_28_2 +0 x_2_28_3 +1 x_2_14_0_sb +0 x_2_14_1_sb +1 x_2_14_2_sb +1 x_2_14_3_sb +0 p0_2_14 -1 p1_2_14 >= -1
-1 x_2_28_0 +0 x_2_28_1 -1 x_2_28_2 +0 x_2_28_3 +1 x_2_14_0_sb +1 x_2_14_1_sb +0 x_2_14_2_sb +0 x_2_14_3_sb +0 p0_2_14 -1 p1_2_14 >= -2
+0 x_2_28_0 +1 x_2_28_1 -1 x_2_28_2 -1 x_2_28_3 +0 x_2_14_0_sb +0 x_2_14_1_sb +0 x_2_14_2_sb +1 x_2_14_3_sb +0 p0_2_14 -1 p1_2_14 >= -2
-1 x_2_28_0 -1 x_2_28_1 +0 x_2_28_2 -1 x_2_28_3 +0 x_2_14_0_sb +1 x_2_14_1_sb +0 x_2_14_2_sb -1 x_2_14_3_sb +0 p0_2_14 -1 p1_2_14 >= -4
-1 x_2_28_0 +1 x_2_28_1 +0 x_2_28_2 +1 x_2_28_3 +0 x_2_14_0_sb +1 x_2_14_1_sb +0 x_2_14_2_sb +1 x_2_14_3_sb +0 p0_2_14 +1 p1_2_14 >= 0
+0 x_2_28_0 +0 x_2_28_1 +0 x_2_28_2 +0 x_2_28_3 +1 x_2_14_0_sb -1 x_2_14_1_sb +0 x_2_14_2_sb -1 x_2_14_3_sb +0 p0_2_14 +1 p1_2_14 >= -1
+1 x_2_28_0 +0 x_2_28_1 +1 x_2_28_2 +0 x_2_28_3 +1 x_2_14_0_sb -1 x_2_14_1_sb +0 x_2_14_2_sb +0 x_2_14_3_sb +0 p0_2_14 -1 p1_2_14 >= -1
+0 x_2_28_0 +1 x_2_28_1 +0 x_2_28_2 +1 x_2_28_3 +0 x_2_14_0_sb -1 x_2_14_1_sb -1 x_2_14_2_sb +0 x_2_14_3_sb +0 p0_2_14 -1 p1_2_14 >= -2
+1 x_2_28_0 -1 x_2_28_1 +0 x_2_28_2 -1 x_2_28_3 +0 x_2_14_0_sb +0 x_2_14_1_sb +1 x_2_14_2_sb +0 x_2_14_3_sb +0 p0_2_14 +0 p1_2_14 >= -1
+1 x_2_28_0 -1 x_2_28_1 -1 x_2_28_2 +0 x_2_28_3 +0 x_2_14_0_sb +0 x_2_14_1_sb +1 x_2_14_2_sb -1 x_2_14_3_sb +0 p0_2_14 -1 p1_2_14 >= -3
+1 x_2_28_0 -1 x_2_28_1 +0 x_2_28_2 -1 x_2_28_3 +0 x_2_14_0_sb +0 x_2_14_1_sb +0 x_2_14_2_sb +0 x_2_14_3_sb +0 p0_2_14 +1 p1_2_14 >= -1
+1 x_2_28_0 +0 x_2_28_1 +0 x_2_28_2 +0 x_2_28_3 -1 x_2_14_0_sb +1 x_2_14_1_sb +0 x_2_14_2_sb -1 x_2_14_3_sb +0 p0_2_14 +1 p1_2_14 >= -1
+1 x_2_28_0 +0 x_2_28_1 +0 x_2_28_2 +0 x_2_28_3 -1 x_2_14_0_sb -1 x_2_14_1_sb +0 x_2_14_2_sb +1 x_2_14_3_sb +0 p0_2_14 +1 p1_2_14 >= -1
-1 x_2_28_0 -1 x_2_28_1 +0 x_2_28_2 +1 x_2_28_3 +1 x_2_14_0_sb +0 x_2_14_1_sb +0 x_2_14_2_sb +0 x_2_14_3_sb +0 p0_2_14 +1 p1_2_14 >= -1
-1 x_2_28_0 +1 x_2_28_1 +0 x_2_28_2 -1 x_2_28_3 +1 x_2_14_0_sb +0 x_2_14_1_sb +0 x_2_14_2_sb +0 x_2_14_3_sb +0 p0_2_14 +1 p1_2_14 >= -1
+0 x_2_28_0 -1 x_2_28_1 +0 x_2_28_2 -1 x_2_28_3 +0 x_2_14_0_sb -1 x_2_14_1_sb +0 x_2_14_2_sb -1 x_2_14_3_sb +0 p0_2_14 +1 p1_2_14 >= -3
+1 x_2_28_0 +1 x_2_28_1 +0 x_2_28_2 +1 x_2_28_3 +0 x_2_14_0_sb +0 x_2_14_1_sb -1 x_2_14_2_sb +0 x_2_14_3_sb +0 p0_2_14 +0 p1_2_14 >= 0
-1 x_2_28_0 +0 x_2_28_1 +1 x_2_28_2 -1 x_2_28_3 +0 x_2_14_0_sb -1 x_2_14_1_sb -1 x_2_14_2_sb +0 x_2_14_3_sb +0 p0_2_14 -1 p1_2_14 >= -4
+1 x_2_28_0 +1 x_2_28_1 +0 x_2_28_2 -1 x_2_28_3 +1 x_2_14_0_sb +1 x_2_14_1_sb +0 x_2_14_2_sb -1 x_2_14_3_sb +0 p0_2_14 -1 p1_2_14 >= -2
+1 x_2_28_0 +0 x_2_28_1 +1 x_2_28_2 +0 x_2_28_3 +0 x_2_14_0_sb +1 x_2_14_1_sb +1 x_2_14_2_sb +1 x_2_14_3_sb +0 p0_2_14 -1 p1_2_14 >= 0
+1 x_2_28_0 +0 x_2_28_1 -1 x_2_28_2 -1 x_2_28_3 -1 x_2_14_0_sb -1 x_2_14_1_sb +0 x_2_14_2_sb -1 x_2_14_3_sb +0 p0_2_14 -1 p1_2_14 >= -5
+0 x_2_28_0 +0 x_2_28_1 +1 x_2_28_2 +1 x_2_28_3 -1 x_2_14_0_sb +0 x_2_14_1_sb -1 x_2_14_2_sb +0 x_2_14_3_sb +0 p0_2_14 -1 p1_2_14 >= -2
+0 x_2_28_0 +0 x_2_28_1 +1 x_2_28_2 +0 x_2_28_3 +1 x_2_14_0_sb -1 x_2_14_1_sb +0 x_2_14_2_sb -1 x_2_14_3_sb +0 p0_2_14 +0 p1_2_14 >= -1
+0 x_2_28_0 -1 x_2_28_1 +0 x_2_28_2 -1 x_2_28_3 +0 x_2_14_0_sb +1 x_2_14_1_sb +0 x_2_14_2_sb +1 x_2_14_3_sb +0 p0_2_14 +1 p1_2_14 >= -1
+0 x_2_28_0 +1 x_2_28_1 +0 x_2_28_2 +1 x_2_28_3 +0 x_2_14_0_sb -1 x_2_14_1_sb +0 x_2_14_2_sb -1 x_2_14_3_sb +0 p0_2_14 +1 p1_2_14 >= -1
+1 x_2_28_0 -1 x_2_28_1 +1 x_2_28_2 -1 x_2_28_3 +1 x_2_14_0_sb +0 x_2_14_1_sb +0 x_2_14_2_sb +0 x_2_14_3_sb +0 p0_2_14 +0 p1_2_14 >= -1
+1 x_2_28_0 +0 x_2_28_1 +0 x_2_28_2 +0 x_2_28_3 +1 x_2_14_0_sb -1 x_2_14_1_sb +1 x_2_14_2_sb -1 x_2_14_3_sb +0 p0_2_14 +0 p1_2_14 >= -1
+0 x_2_28_0 -1 x_2_28_1 +0 x_2_28_2 -1 x_2_28_3 +1 x_2_14_0_sb -1 x_2_14_1_sb -1 x_2_14_2_sb -1 x_2_14_3_sb +0 p0_2_14 +0 p1_2_14 >= -4
+1 x_2_28_0 +0 x_2_28_1 +0 x_2_28_2 +1 x_2_28_3 +0 x_2_14_0_sb -1 x_2_14_1_sb -1 x_2_14_2_sb +1 x_2_14_3_sb +0 p0_2_14 -1 p1_2_14 >= -2
+0 x_2_28_0 +0 x_2_28_1 -1 x_2_28_2 +1 x_2_28_3 -1 x_2_14_0_sb +1 x_2_14_1_sb +0 x_2_14_2_sb -1 x_2_14_3_sb +0 p0_2_14 -1 p1_2_14 >= -3
+0 x_2_28_0 +1 x_2_28_1 +0 x_2_28_2 +1 x_2_28_3 -1 x_2_14_0_sb -1 x_2_14_1_sb +0 x_2_14_2_sb +1 x_2_14_3_sb +0 p0_2_14 -1 p1_2_14 >= -2
-1 x_2_28_0 +1 x_2_28_1 +0 x_2_28_2 -1 x_2_28_3 +0 x_2_14_0_sb +0 x_2_14_1_sb -1 x_2_14_2_sb +1 x_2_14_3_sb +0 p0_2_14 -1 p1_2_14 >= -3
-1 x_2_28_0 +0 x_2_28_1 +0 x_2_28_2 +0 x_2_28_3 -1 x_2_14_0_sb +1 x_2_14_1_sb +0 x_2_14_2_sb -1 x_2_14_3_sb +0 p0_2_14 -1 p1_2_14 >= -3
+0 x_2_28_0 +0 x_2_28_1 -1 x_2_28_2 +0 x_2_28_3 +1 x_2_14_0_sb +1 x_2_14_1_sb +0 x_2_14_2_sb +1 x_2_14_3_sb +0 p0_2_14 +0 p1_2_14 >= 0
+0 x_2_30_0 +0 x_2_30_1 +0 x_2_30_2 +0 x_2_30_3 +0 x_2_15_0_sb +0 x_2_15_1_sb +0 x_2_15_2_sb +0 x_2_15_3_sb -1 p0_2_15 -1 p1_2_15 >= -1
+0 x_2_30_0 +0 x_2_30_1 +0 x_2_30_2 +0 x_2_30_3 +0 x_2_15_0_sb +0 x_2_15_1_sb +0 x_2_15_2_sb -1 x_2_15_3_sb +1 p0_2_15 +1 p1_2_15 >= 0
+0 x_2_30_0 +0 x_2_30_1 +0 x_2_30_2 +0 x_2_30_3 +0 x_2_15_0_sb -1 x_2_15_1_sb +0 x_2_15_2_sb +0 x_2_15_3_sb +1 p0_2_15 +1 p1_2_15 >= 0
+0 x_2_30_0 +0 x_2_30_1 +0 x_2_30_2 +0 x_2_30_3 -1 x_2_15_0_sb +0 x_2_15_1_sb +0 x_2_15_2_sb +0 x_2_15_3_sb +1 p0_2_15 +1 p1_2_15 >= 0
+0 x_2_30_0 +0 x_2_30_1 +0 x_2_30_2 +0 x_2_30_3 +1 x_2_15_0_sb +1 x_2_15_1_sb +1 x_2_15_2_sb +1 x_2_15_3_sb +0 p0_2_15 -1 p1_2_15 >= 0
+0 x_2_30_0 +0 x_2_30_1 +0 x_2_30_2 -1 x_2_30_3 +1 x_2_15_0_sb +1 x_2_15_1_sb +0 x_2_15_2_sb +1 x_2_15_3_sb +0 p0_2_15 +1 p1_2_15 >= 0
-1 x_2_30_0 +0 x_2_30_1 -1 x_2_30_2 +0 x_2_30_3 +1 x_2_15_0_sb +0 x_2_15_1_sb +0 x_2_15_2_sb +1 x_2_15_3_sb +0 p0_2_15 -1 p1_2_15 >= -2
+1 x_2_30_0 +0 x_2_30_1 +1 x_2_30_2 +0 x_2_30_3 +1 x_2_15_0_sb +0 x_2_15_1_sb +1 x_2_15_2_sb +0 x_2_15_3_sb +0 p0_2_15 -1 p1_2_15 >= 0
+0 x_2_30_0 +0 x_2_30_1 +0 x_2_30_2 +1 x_2_30_3 +0 x_2_15_0_sb +1 x_2_15_1_sb -1 x_2_15_2_sb -1 x_2_15_3_sb +0 p0_2_15 -1 p1_2_15 >= -2
-1 x_2_30_0 +0 x_2_30_1 +0 x_2_30_2 -1 x_2_30_3 -1 x_2_15_0_sb +0 x_2_15_1_sb +0 x_2_15_2_sb +1 x_2_15_3_sb +0 p0_2_15 -1 p1_2_15 >= -3
+0 x_2_30_0 +0 x_2_30_1 +0 x_2_30_2 +1 x_2_30_3 -1 x_2_15_0_sb -1 x_2_15_1_sb -1 x_2_15_2_sb +0 x_2_15_3_sb +0 p0_2_15 -1 p1_2_15 >= -3
+1 x_2_30_0 +1 x_2_30_1 +0 x_2_30_2 +1 x_2_30_3 +0 x_2_15_0_sb +0 x_2_15_1_sb +0 x_2_15_2_sb +0 x_2_15_3_sb -1 p0_2_15 +0 p1_2_15 >= 0
+0 x_2_30_0 +0 x_2_30_1 +1 x_2_30_2 +1 x_2_30_3 +0 x_2_15_0_sb -1 x_2_15_1_sb +1 x_2_15_2_sb +0 x_2_15_3_sb +0 p0_2_15 -1 p1_2_15 >= -1
+0 x_2_30_0 +1 x_2_30_1 +0 x_2_30_2 -1 x_2_30_3 -1 x_2_15_0_sb +0 x_2_15_1_sb -1 x_2_15_2_sb +0 x_2_15_3_sb +0 p0_2_15 -1 p1_2_15 >= -3
+0 x_2_30_0 +1 x_2_30_1 +1 x_2_30_2 +0 x_2_30_3 +0 x_2_15_0_sb +0 x_2_15_1_sb +1 x_2_15_2_sb -1 x_2_15_3_sb +0 p0_2_15 -1 p1_2_15 >= -1
-1 x_2_30_0 +0 x_2_30_1 -1 x_2_30_2 +0 x_2_30_3 -1 x_2_15_0_sb +0 x_2_15_1_sb +1 x_2_15_2_sb +0 x_2_15_3_sb +0 p0_2_15 -1 p1_2_15 >= -3
+0 x_2_30_0 -1 x_2_30_1 -1 x_2_30_2 +0 x_2_30_3 +0 x_2_15_0_sb +1 x_2_15_1_sb +0 x_2_15_2_sb +1 x_2_15_3_sb +0 p0_2_15 -1 p1_2_15 >= -2
+0 x_2_30_0 -1 x_2_30_1 +0 x_2_30_2 +0 x_2_30_3 +1 x_2_15_0_sb +1 x_2_15_1_sb +0 x_2_15_2_sb +1 x_2_15_3_sb +0 p0_2_15 +1 p1_2_15 >= 0
-1 x_2_30_0 -1 x_2_30_1 +0 x_2_30_2 +1 x_2_30_3 +0 x_2_15_0_sb +1 x_2_15_1_sb +0 x_2_15_2_sb +1 x_2_15_3_sb +0 p0_2_15 -1 p1_2_15 >= -2
+0 x_2_30_0 -1 x_2_30_1 +0 x_2_30_2 +0 x_2_30_3 +1 x_2_15_0_sb +0 x_2_15_1_sb +1 x_2_15_2_sb +1 x_2_15_3_sb +0 p0_2_15 -1 p1_2_15 >= -1
-1 x_2_30_0 +0 x_2_30_1 -1 x_2_30_2 +0 x_2_30_3 +1 x_2_15_0_sb +1 x_2_15_1_sb +0 x_2_15_2_sb +0 x_2_15_3_sb +0 p0_2_15 -1 p1_2_15 >= -2
+0 x_2_30_0 +1 x_2_30_1 -1 x_2_30_2 -1 x_2_30_3 +0 x_2_15_0_sb +0 x_2_15_1_sb +0 x_2_15_2_sb +1 x_2_15_3_sb +0 p0_2_15 -1 p1_2_15 >= -2
-1 x_2_30_0 -1 x_2_30_1 +0 x_2_30_2 -1 x_2_30_3 +0 x_2_15_0_sb +1 x_2_15_1_sb +0 x_2_15_2_sb -1 x_2_15_3_sb +0 p0_2_15 -1 p1_2_15 >= -4
-1 x_2_30_0 +1 x_2_30_1 +0 x_2_30_2 +1 x_2_30_3 +0 x_2_15_0_sb +1 x_2_15_1_sb +0 x_2_15_2_sb +1 x_2_15_3_sb +0 p0_2_15 +1 p1_2_15 >= 0
+0 x_2_30_0 +0 x_2_30_1 +0 x_2_30_2 +0 x_2_30_3 +1 x_2_15_0_sb -1 x_2_15_1_sb +0 x_2_15_2_sb -1 x_2_15_3_sb +0 p0_2_15 +1 p1_2_15 >= -1
+1 x_2_30_0 +0 x_2_30_1 +1 x_2_30_2 +0 x_2_30_3 +1 x_2_15_0_sb -1 x_2_15_1_sb +0 x_2_15_2_sb +0 x_2_15_3_sb +0 p0_2_15 -1 p1_2_15 >= -1
+0 x_2_30_0 +1 x_2_30_1 +0 x_2_30_2 +1 x_2_30_3 +0 x_2_15_0_sb -1 x_2_15_1_sb -1 x_2_15_2_sb +0 x_2_15_3_sb +0 p0_2_15 -1 p1_2_15 >= -2
+1 x_2_30_0 -1 x_2_30_1 +0 x_2_30_2 -1 x_2_30_3 +0 x_2_15_0_sb +0 x_2_15_1_sb +1 x_2_15_2_sb +0 x_2_15_3_sb +0 p0_2_15 +0 p1_2_15 >= -1
+1 x_2_30_0 -1 x_2_30_1 -1 x_2_30_2 +0 x_2_30_3 +0 x_2_15_0_sb +0 x_2_15_1_sb +1 x_2_15_2_sb -1 x_2_15_3_sb +0 p0_2_15 -1 p1_2_15 >= -3
+1 x_2_30_0 -1 x_2_30_1 +0 x_2_30_2 -1 x_2_30_3 +0 x_2_15_0_sb +0 x_2_15_1_sb +0 x_2_15_2_sb +0 x_2_15_3_sb +0 p0_2_15 +1 p1_2_15 >= -1
+1 x_2_30_0 +0 x_2_30_1 +0 x_2_30_2 +0 x_2_30_3 -1 x_2_15_0_sb +1 x_2_15_1_sb +0 x_2_15_2_sb -1 x_2_15_3_sb +0 p0_2_15 +1 p1_2_15 >= -1
+1 x_2_30_0 +0 x_2_30_1 +0 x_2_30_2 +0 x_2_30_3 -1 x_2_15_0_sb -1 x_2_15_1_sb +0 x_2_15_2_sb +1 x_2_15_3_sb +0 p0_2_15 +1 p1_2_15 >= -1
-1 x_2_30_0 -1 x_2_30_1 +0 x_2_30_2 +1 x_2_30_3 +1 x_2_15_0_sb +0 x_2_15_1_sb +0 x_2_15_2_sb +0 x_2_15_3_sb +0 p0_2_15 +1 p1_2_15 >= -1
-1 x_2_30_0 +1 x_2_30_1 +0 x_2_30_2 -1 x_2_30_3 +1 x_2_15_0_sb +0 x_2_15_1_sb +0 x_2_15_2_sb +0 x_2_15_3_sb +0 p0_2_15 +1 p1_2_15 >= -1
+0 x_2_30_0 -1 x_2_30_1 +0 x_2_30_2 -1 x_2_30_3 +0 x_2_15_0_sb -1 x_2_15_1_sb +0 x_2_15_2_sb -1 x_2_15_3_sb +0 p0_2_15 +1 p1_2_15 >= -3
+1 x_2_30_0 +1 x_2_30_1 +0 x_2_30_2 +1 x_2_30_3 +0 x_2_15_0_sb +0 x_2_15_1_sb -1 x_2_15_2_sb +0 x_2_15_3_sb +0 p0_2_15 +0 p1_2_15 >= 0
-1 x_2_30_0 +0 x_2_30_1 +1 x_2_30_2 -1 x_2_30_3 +0 x_2_15_0_sb -1 x_2_15_1_sb -1 x_2_15_2_sb +0 x_2_15_3_sb +0 p0_2_15 -1 p1_2_15 >= -4
+1 x_2_30_0 +1 x_2_30_1 +0 x_2_30_2 -1 x_2_30_3 +1 x_2_15_0_sb +1 x_2_15_1_sb +0 x_2_15_2_sb -1 x_2_15_3_sb +0 p0_2_15 -1 p1_2_15 >= -2
+1 x_2_30_0 +0 x_2_30_1 +1 x_2_30_2 +0 x_2_30_3 +0 x_2_15_0_sb +1 x_2_15_1_sb +1 x_2_15_2_sb +1 x_2_15_3_sb +0 p0_2_15 -1 p1_2_15 >= 0
+1 x_2_30_0 +0 x_2_30_1 -1 x_2_30_2 -1 x_2_30_3 -1 x_2_15_0_sb -1 x_2_15_1_sb +0 x_2_15_2_sb -1 x_2_15_3_sb +0 p0_2_15 -1 p1_2_15 >= -5
+0 x_2_30_0 +0 x_2_30_1 +1 x_2_30_2 +1 x_2_30_3 -1 x_2_15_0_sb +0 x_2_15_1_sb -1 x_2_15_2_sb +0 x_2_15_3_sb +0 p0_2_15 -1 p1_2_15 >= -2
+0 x_2_30_0 +0 x_2_30_1 +1 x_2_30_2 +0 x_2_30_3 +1 x_2_15_0_sb -1 x_2_15_1_sb +0 x_2_15_2_sb -1 x_2_15_3_sb +0 p0_2_15 +0 p1_2_15 >= -1
+0 x_2_30_0 -1 x_2_30_1 +0 x_2_30_2 -1 x_2_30_3 +0 x_2_15_0_sb +1 x_2_15_1_sb +0 x_2_15_2_sb +1 x_2_15_3_sb +0 p0_2_15 +1 p1_2_15 >= -1
+0 x_2_30_0 +1 x_2_30_1 +0 x_2_30_2 +1 x_2_30_3 +0 x_2_15_0_sb -1 x_2_15_1_sb +0 x_2_15_2_sb -1 x_2_15_3_sb +0 p0_2_15 +1 p1_2_15 >= -1
+1 x_2_30_0 -1 x_2_30_1 +1 x_2_30_2 -1 x_2_30_3 +1 x_2_15_0_sb +0 x_2_15_1_sb +0 x_2_15_2_sb +0 x_2_15_3_sb +0 p0_2_15 +0 p1_2_15 >= -1
+1 x_2_30_0 +0 x_2_30_1 +0 x_2_30_2 +0 x_2_30_3 +1 x_2_15_0_sb -1 x_2_15_1_sb +1 x_2_15_2_sb -1 x_2_15_3_sb +0 p0_2_15 +0 p1_2_15 >= -1
+0 x_2_30_0 -1 x_2_30_1 +0 x_2_30_2 -1 x_2_30_3 +1 x_2_15_0_sb -1 x_2_15_1_sb -1 x_2_15_2_sb -1 x_2_15_3_sb +0 p0_2_15 +0 p1_2_15 >= -4
+1 x_2_30_0 +0 x_2_30_1 +0 x_2_30_2 +1 x_2_30_3 +0 x_2_15_0_sb -1 x_2_15_1_sb -1 x_2_15_2_sb +1 x_2_15_3_sb +0 p0_2_15 -1 p1_2_15 >= -2
+0 x_2_30_0 +0 x_2_30_1 -1 x_2_30_2 +1 x_2_30_3 -1 x_2_15_0_sb +1 x_2_15_1_sb +0 x_2_15_2_sb -1 x_2_15_3_sb +0 p0_2_15 -1 p1_2_15 >= -3
+0 x_2_30_0 +1 x_2_30_1 +0 x_2_30_2 +1 x_2_30_3 -1 x_2_15_0_sb -1 x_2_15_1_sb +0 x_2_15_2_sb +1 x_2_15_3_sb +0 p0_2_15 -1 p1_2_15 >= -2
-1 x_2_30_0 +1 x_2_30_1 +0 x_2_30_2 -1 x_2_30_3 +0 x_2_15_0_sb +0 x_2_15_1_sb -1 x_2_15_2_sb +1 x_2_15_3_sb +0 p0_2_15 -1 p1_2_15 >= -3
-1 x_2_30_0 +0 x_2_30_1 +0 x_2_30_2 +0 x_2_30_3 -1 x_2_15_0_sb +1 x_2_15_1_sb +0 x_2_15_2_sb -1 x_2_15_3_sb +0 p0_2_15 -1 p1_2_15 >= -3
+0 x_2_30_0 +0 x_2_30_1 -1 x_2_30_2 +0 x_2_30_3 +1 x_2_15_0_sb +1 x_2_15_1_sb +0 x_2_15_2_sb +1 x_2_15_3_sb +0 p0_2_15 +0 p1_2_15 >= 0
-1 x_2_1_0 -1 x_2_0_0_sb -1 x_3_6_0 >= -2
+1 x_2_1_0 +1 x_2_0_0_sb -1 x_3_6_0 >= 0
+1 x_2_1_0 -1 x_2_0_0_sb +1 x_3_6_0 >= 0
-1 x_2_1_0 +1 x_2_0_0_sb +1 x_3_6_0 >= 0
-1 x_2_1_1 -1 x_2_0_1_sb -1 x_3_6_1 >= -2
+1 x_2_1_1 +1 x_2_0_1_sb -1 x_3_6_1 >= 0
+1 x_2_1_1 -1 x_2_0_1_sb +1 x_3_6_1 >= 0
-1 x_2_1_1 +1 x_2_0_1_sb +1 x_3_6_1 >= 0
-1 x_2_1_2 -1 x_2_0_2_sb -1 x_3_6_2 >= -2
+1 x_2_1_2 +1 x_2_0_2_sb -1 x_3_6_2 >= 0
+1 x_2_1_2 -1 x_2_0_2_sb +1 x_3_6_2 >= 0
-1 x_2_1_2 +1 x_2_0_2_sb +1 x_3_6_2 >= 0
-1 x_2_1_3 -1 x_2_0_3_sb -1 x_3_6_3 >= -2
+1 x_2_1_3 +1 x_2_0_3_sb -1 x_3_6_3 >= 0
+1 x_2_1_3 -1 x_2_0_3_sb +1 x_3_6_3 >= 0
-1 x_2_1_3 +1 x_2_0_3_sb +1 x_3_6_3 >= 0
-1 x_2_3_0 -1 x_2_1_0_sb -1 x_3_14_0 >= -2
+1 x_2_3_0 +1 x_2_1_0_sb -1 x_3_14_0 >= 0
+1 x_2_3_0 -1 x_2_1_0_sb +1 x_3_14_0 >= 0
-1 x_2_3_0 +1 x_2_1_0_sb +1 x_3_14_0 >= 0
-1 x_2_3_1 -1 x_2_1_1_sb -1 x_3_14_1 >= -2
+1 x_2_3_1 +1 x_2_1_1_sb -1 x_3_14_1 >= 0
+1 x_2_3_1 -1 x_2_1_1_sb +1 x_3_14_1 >= 0
-1 x_2_3_1 +1 x_2_1_1_sb +1 x_3_14_1 >= 0
-1 x_2_3_2 -1 x_2_1_2_sb -1 x_3_14_2 >= -2
+1 x_2_3_2 +1 x_2_1_2_sb -1 x_3_14_2 >= 0
+1 x_2_3_2 -1 x_2_1_2_sb +1 x_3_14_2 >= 0
-1 x_2_3_2 +1 x_2_1_2_sb +1 x_3_14_2 >= 0
-1 x_2_3_3 -1 x_2_1_3_sb -1 x_3_14_3 >= -2
+1 x_2_3_3 +1 x_2_1_3_sb -1 x_3_14_3 >= 0
+1 x_2_3_3 -1 x_2_1_3_sb +1 x_3_14_3 >= 0
-1 x_2_3_3 +1 x_2_1_3_sb +1 x_3_14_3 >= 0
-1 x_2_5_0 -1 x_2_2_0_sb -1 x_3_12_0 >= -2
+1 x_2_5_0 +1 x_2_2_0_sb -1 x_3_12_0 >= 0
+1 x_2_5_0 -1 x_2_2_0_sb +1 x_3_12_0 >= 0
-1 x_2_5_0 +1 x_2_2_0_sb +1 x_3_12_0 >= 0
-1 x_2_5_1 -1 x_2_2_1_sb -1 x_3_12_1 >= -2
+1 x_2_5_1 +1 x_2_2_1_sb -1 x_3_12_1 >= 0
+1 x_2_5_1 -1 x_2_2_1_sb +1 x_3_12_1 >= 0
-1 x_2_5_1 +1 x_2_2_1_sb +1 x_3_12_1 >= 0
-1 x_2_5_2 -1 x_2_2_2_sb -1 x_3_12_2 >= -2
+1 x_2_5_2 +1 x_2_2_2_sb -1 x_3_12_2 >= 0
+1 x_2_5_2 -1 x_2_2_2_sb +1 x_3_12_2 >= 0
-1 x_2_5_2 +1 x_2_2_2_sb +1 x_3_12_2 >= 0
-1 x_2_5_3 -1 x_2_2_3_sb -1 x_3_12_3 >= -2
+1 x_2_5_3 +1 x_2_2_3_sb -1 x_3_12_3 >= 0
+1 x_2_5_3 -1 x_2_2_3_sb +1 x_3_12_3 >= 0
-1 x_2_5_3 +1 x_2_2_3_sb +1 x_3_12_3 >= 0
-1 x_2_7_0 -1 x_2_3_0_sb -1 x_3_8_0 >= -2
+1 x_2_7_0 +1 x_2_3_0_sb -1 x_3_8_0 >= 0
+1 x_2_7_0 -1 x_2_3_0_sb +1 x_3_8_0 >= 0
-1 x_2_7_0 +1 x_2_3_0_sb +1 x_3_8_0 >= 0
-1 x_2_7_1 -1 x_2_3_1_sb -1 x_3_8_1 >= -2
+1 x_2_7_1 +1 x_2_3_1_sb -1 x_3_8_1 >= 0
+1 x_2_7_1 -1 x_2_3_1_sb +1 x_3_8_1 >= 0
-1 x_2_7_1 +1 x_2_3_1_sb +1 x_3_8_1 >= 0
-1 x_2_7_2 -1 x_2_3_2_sb -1 x_3_8_2 >= -2
+1 x_2_7_2 +1 x_2_3_2_sb -1 x_3_8_2 >= 0
+1 x_2_7_2 -1 x_2_3_2_sb +1 x_3_8_2 >= 0
-1 x_2_7_2 +1 x_2_3_2_sb +1 x_3_8_2 >= 0
-1 x_2_7_3 -1 x_2_3_3_sb -1 x_3_8_3 >= -2
+1 x_2_7_3 +1 x_2_3_3_sb -1 x_3_8_3 >= 0
+1 x_2_7_3 -1 x_2_3_3_sb +1 x_3_8_3 >= 0
-1 x_2_7_3 +1 x_2_3_3_sb +1 x_3_8_3 >= 0
-1 x_2_9_0 -1 x_2_4_0_sb -1 x_3_2_0 >= -2
+1 x_2_9_0 +1 x_2_4_0_sb -1 x_3_2_0 >= 0
+1 x_2_9_0 -1 x_2_4_0_sb +1 x_3_2_0 >= 0
-1 x_2_9_0 +1 x_2_4_0_sb +1 x_3_2_0 >= 0
-1 x_2_9_1 -1 x_2_4_1_sb -1 x_3_2_1 >= -2
+1 x_2_9_1 +1 x_2_4_1_sb -1 x_3_2_1 >= 0
+1 x_2_9_1 -1 x_2_4_1_sb +1 x_3_2_1 >= 0
-1 x_2_9_1 +1 x_2_4_1_sb +1 x_3_2_1 >= 0
-1 x_2_9_2 -1 x_2_4_2_sb -1 x_3_2_2 >= -2
+1 x_2_9_2 +1 x_2_4_2_sb -1 x_3_2_2 >= 0
+1 x_2_9_2 -1 x_2_4_2_sb +1 x_3_2_2 >= 0
-1 x_2_9_2 +1 x_2_4_2_sb +1 x_3_2_2 >= 0
-1 x_2_9_3 -1 x_2_4_3_sb -1 x_3_2_3 >= -2
+1 x_2_9_3 +1 x_2_4_3_sb -1 x_3_2_3 >= 0
+1 x_2_9_3 -1 x_2_4_3_sb +1 x_3_2_3 >= 0
-1 x_2_9_3 +1 x_2_4_3_sb +1 x_3_2_3 >= 0
-1 x_2_11_0 -1 x_2_5_0_sb -1 x_3_0_0 >= -2
+1 x_2_11_0 +1 x_2_5_0_sb -1 x_3_0_0 >= 0
+1 x_2_11_0 -1 x_2_5_0_sb +1 x_3_0_0 >= 0
-1 x_2_11_0 +1 x_2_5_0_sb +1 x_3_0_0 >= 0
-1 x_2_11_1 -1 x_2_5_1_sb -1 x_3_0_1 >= -2
+1 x_2_11_1 +1 x_2_5_1_sb -1 x_3_0_1 >= 0
+1 x_2_11_1 -1 x_2_5_1_sb +1 x_3_0_1 >= 0
-1 x_2_11_1 +1 x_2_5_1_sb +1 x_3_0_1 >= 0
-1 x_2_11_2 -1 x_2_5_2_sb -1 x_3_0_2 >= -2
+1 x_2_11_2 +1 x_2_5_2_sb -1 x_3_0_2 >= 0
+1 x_2_11_2 -1 x_2_5_2_sb +1 x_3_0_2 >= 0
-1 x_2_11_2 +1 x_2_5_2_sb +1 x_3_0_2 >= 0
-1 x_2_11_3 -1 x_2_5_3_sb -1 x_3_0_3 >= -2
+1 x_2_11_3 +1 x_2_5_3_sb -1 x_3_0_3 >= 0
+1 x_2_11_3 -1 x_2_5_3_sb +1 x_3_0_3 >= 0
-1 x_2_11_3 +1 x_2_5_3_sb +1 x_3_0_3 >= 0
-1 x_2_13_0 -1 x_2_6_0_sb -1 x_3_4_0 >= -2
+1 x_2_13_0 +1 x_2_6_0_sb -1 x_3_4_0 >= 0
+1 x_2_13_0 -1 x_2_6_0_sb +1 x_3_4_0 >= 0
-1 x_2_13_0 +1 x_2_6_0_sb +1 x_3_4_0 >= 0
-1 x_2_13_1 -1 x_2_6_1_sb -1 x_3_4_1 >= -2
+1 x_2_13_1 +1 x_2_6_1_sb -1 x_3_4_1 >= 0
+1 x_2_13_1 -1 x_2_6_1_sb +1 x_3_4_1 >= 0
-1 x_2_13_1 +1 x_2_6_1_sb +1 x_3_4_1 >= 0
-1 x_2_13_2 -1 x_2_6_2_sb -1 x_3_4_2 >= -2
+1 x_2_13_2 +1 x_2_6_2_sb -1 x_3_4_2 >= 0
+1 x_2_13_2 -1 x_2_6_2_sb +1 x_3_4_2 >= 0
-1 x_2_13_2 +1 x_2_6_2_sb +1 x_3_4_2 >= 0
-1 x_2_13_3 -1 x_2_6_3_sb -1 x_3_4_3 >= -2
+1 x_2_13_3 +1 x_2_6_3_sb -1 x_3_4_3 >= 0
+1 x_2_13_3 -1 x_2_6_3_sb +1 x_3_4_3 >= 0
-1 x_2_13_3 +1 x_2_6_3_sb +1 x_3_4_3 >= 0
-1 x_2_15_0 -1 x_2_7_0_sb -1 x_3_10_0 >= -2
+1 x_2_15_0 +1 x_2_7_0_sb -1 x_3_10_0 >= 0
+1 x_2_15_0 -1 x_2_7_0_sb +1 x_3_10_0 >= 0
-1 x_2_15_0 +1 x_2_7_0_sb +1 x_3_10_0 >= 0
-1 x_2_15_1 -1 x_2_7_1_sb -1 x_3_10_1 >= -2
+1 x_2_15_1 +1 x_2_7_1_sb -1 x_3_10_1 >= 0
+1 x_2_15_1 -1 x_2_7_1_sb +1 x_3_10_1 >= 0
-1 x_2_15_1 +1 x_2_7_1_sb +1 x_3_10_1 >= 0
-1 x_2_15_2 -1 x_2_7_2_sb -1 x_3_10_2 >= -2
+1 x_2_15_2 +1 x_2_7_2_sb -1 x_3_10_2 >= 0
+1 x_2_15_2 -1 x_2_7_2_sb +1 x_3_10_2 >= 0
-1 x_2_15_2 +1 x_2_7_2_sb +1 x_3_10_2 >= 0
-1 x_2_15_3 -1 x_2_7_3_sb -1 x_3_10_3 >= -2
+1 x_2_15_3 +1 x_2_7_3_sb -1 x_3_10_3 >= 0
+1 x_2_15_3 -1 x_2_7_3_sb +1 x_3_10_3 >= 0
-1 x_2_15_3 +1 x_2_7_3_sb +1 x_3_10_3 >= 0
-1 x_2_17_0 -1 x_2_8_0_sb -1 x_3_22_0 >= -2
+1 x_2_17_0 +1 x_2_8_0_sb -1 x_3_22_0 >= 0
+1 x_2_17_0 -1 x_2_8_0_sb +1 x_3_22_0 >= 0
-1 x_2_17_0 +1 x_2_8_0_sb +1 x_3_22_0 >= 0
-1 x_2_17_1 -1 x_2_8_1_sb -1 x_3_22_1 >= -2
+1 x_2_17_1 +1 x_2_8_1_sb -1 x_3_22_1 >= 0
+1 x_2_17_1 -1 x_2_8_1_sb +1 x_3_22_1 >= 0
-1 x_2_17_1 +1 x_2_8_1_sb +1 x_3_22_1 >= 0
-1 x_2_17_2 -1 x_2_8_2_sb -1 x_3_22_2 >= -2
+1 x_2_17_2 +1 x_2_8_2_sb -1 x_3_22_2 >= 0
+1 x_2_17_2 -1 x_2_8_2_sb +1 x_3_22_2 >= 0
-1 x_2_17_2 +1 x_2_8_2_sb +1 x_3_22_2 >= 0
-1 x_2_17_3 -1 x_2_8_3_sb -1 x_3_22_3 >= -2
+1 x_2_17_3 +1 x_2_8_3_sb -1 x_3_22_3 >= 0
+1 x_2_17_3 -1 x_2_8_3_sb +1 x_3_22_3 >= 0
-1 x_2_17_3 +1 x_2_8_3_sb +1 x_3_22_3 >= 0
-1 x_2_19_0 -1 x_2_9_0_sb -1 x_3_30_0 >= -2
+1 x_2_19_0 +1 x_2_9_0_sb -1 x_3_30_0 >= 0
+1 x_2_19_0 -1 x_2_9_0_sb +1 x_3_30_0 >= 0
-1 x_2_19_0 +1 x_2_9_0_sb +1 x_3_30_0 >= 0
-1 x_2_19_1 -1 x_2_9_1_sb -1 x_3_30_1 >= -2
+1 x_2_19_1 +1 x_2_9_1_sb -1 x_3_30_1 >= 0
+1 x_2_19_1 -1 x_2_9_1_sb +1 x_3_30_1 >= 0
-1 x_2_19_1 +1 x_2_9_1_sb +1 x_3_30_1 >= 0
-1 x_2_19_2 -1 x_2_9_2_sb -1 x_3_30_2 >= -2
+1 x_2_19_2 +1 x_2_9_2_sb -1 x_3_30_2 >= 0
+1 x_2_19_2 -1 x_2_9_2_sb +1 x_3_30_2 >= 0
-1 x_2_19_2 +1 x_2_9_2_sb +1 x_3_30_2 >= 0
-1 x_2_19_3 -1 x_2_9_3_sb -1 x_3_30_3 >= -2
+1 x_2_19_3 +1 x_2_9_3_sb -1 x_3_30_3 >= 0
+1 x_2_19_3 -1 x_2_9_3_sb +1 x_3_30_3 >= 0
-1 x_2_19_3 +1 x_2_9_3_sb +1 x_3_30_3 >= 0
-1 x_2_21_0 -1 x_2_10_0_sb -1 x_3_28_0 >= -2
+1 x_2_21_0 +1 x_2_10_0_sb -1 x_3_28_0 >= 0
+1 x_2_21_0 -1 x_2_10_0_sb +1 x_3_28_0 >= 0
-1 x_2_21_0 +1 x_2_10_0_sb +1 x_3_28_0 >= 0
-1 x_2_21_1 -1 x_2_10_1_sb -1 x_3_28_1 >= -2
+1 x_2_21_1 +1 x_2_10_1_sb -1 x_3_28_1 >= 0
+1 x_2_21_1 -1 x_2_10_1_sb +1 x_3_28_1 >= 0
-1 x_2_21_1 +1 x_2_10_1_sb +1 x_3_28_1 >= 0
-1 x_2_21_2 -1 x_2_10_2_sb -1 x_3_28_2 >= -2
+1 x_2_21_2 +1 x_2_10_2_sb -1 x_3_28_2 >= 0
+1 x_2_21_2 -1 x_2_10_2_sb +1 x_3_28_2 >= 0
-1 x_2_21_2 +1 x_2_10_2_sb +1 x_3_28_2 >= 0
-1 x_2_21_3 -1 x_2_10_3_sb -1 x_3_28_3 >= -2
+1 x_2_21_3 +1 x_2_10_3_sb -1 x_3_28_3 >= 0
+1 x_2_21_3 -1 x_2_10_3_sb +1 x_3_28_3 >= 0
-1 x_2_21_3 +1 x_2_10_3_sb +1 x_3_28_3 >= 0
-1 x_2_23_0 -1 x_2_11_0_sb -1 x_3_24_0 >= -2
+1 x_2_23_0 +1 x_2_11_0_sb -1 x_3_24_0 >= 0
+1 x_2_23_0 -1 x_2_11_0_sb +1 x_3_24_0 >= 0
-1 x_2_23_0 +1 x_2_11_0_sb +1 x_3_24_0 >= 0
-1 x_2_23_1 -1 x_2_11_1_sb -1 x_3_24_1 >= -2
+1 x_2_23_1 +1 x_2_11_1_sb -1 x_3_24_1 >= 0
+1 x_2_23_1 -1 x_2_11_1_sb +1 x_3_24_1 >= 0
-1 x_2_23_1 +1 x_2_11_1_sb +1 x_3_24_1 >= 0
-1 x_2_23_2 -1 x_2_11_2_sb -1 x_3_24_2 >= -2
+1 x_2_23_2 +1 x_2_11_2_sb -1 x_3_24_2 >= 0
+1 x_2_23_2 -1 x_2_11_2_sb +1 x_3_24_2 >= 0
-1 x_2_23_2 +1 x_2_11_2_sb +1 x_3_24_2 >= 0
-1 x_2_23_3 -1 x_2_11_3_sb -1 x_3_24_3 >= -2
+1 x_2_23_3 +1 x_2_11_3_sb -1 x_3_24_3 >= 0
+1 x_2_23_3 -1 x_2_11_3_sb +1 x_3_24_3 >= 0
-1 x_2_23_3 +1 x_2_11_3_sb +1 x_3_24_3 >= 0
-1 x_2_25_0 -1 x_2_12_0_sb -1 x_3_18_0 >= -2
+1 x_2_25_0 +1 x_2_12_0_sb -1 x_3_18_0 >= 0
+1 x_2_25_0 -1 x_2_12_0_sb +1 x_3_18_0 >= 0
-1 x_2_25_0 +1 x_2_12_0_sb +1 x_3_18_0 >= 0
-1 x_2_25_1 -1 x_2_12_1_sb -1 x_3_18_1 >= -2
+1 x_2_25_1 +1 x_2_12_1_sb -1 x_3_18_1 >= 0
+1 x_2_25_1 -1 x_2_12_1_sb +1 x_3_18_1 >= 0
-1 x_2_25_1 +1 x_2_12_1_sb +1 x_3_18_1 >= 0
-1 x_2_25_2 -1 x_2_12_2_sb -1 x_3_18_2 >= -2
+1 x_2_25_2 +1 x_2_12_2_sb -1 x_3_18_2 >= 0
+1 x_2_25_2 -1 x_2_12_2_sb +1 x_3_18_2 >= 0
-1 x_2_25_2 +1 x_2_12_2_sb +1 x_3_18_2 >= 0
-1 x_2_25_3 -1 x_2_12_3_sb -1 x_3_18_3 >= -2
+1 x_2_25_3 +1 x_2_12_3_sb -1 x_3_18_3 >= 0
+1 x_2_25_3 -1 x_2_12_3_sb +1 x_3_18_3 >= 0
-1 x_2_25_3 +1 x_2_12_3_sb +1 x_3_18_3 >= 0
-1 x_2_27_0 -1 x_2_13_0_sb -1 x_3_16_0 >= -2
+1 x_2_27_0 +1 x_2_13_0_sb -1 x_3_16_0 >= 0
+1 x_2_27_0 -1 x_2_13_0_sb +1 x_3_16_0 >= 0
-1 x_2_27_0 +1 x_2_13_0_sb +1 x_3_16_0 >= 0
-1 x_2_27_1 -1 x_2_13_1_sb -1 x_3_16_1 >= -2
+1 x_2_27_1 +1 x_2_13_1_sb -1 x_3_16_1 >= 0
+1 x_2_27_1 -1 x_2_13_1_sb +1 x_3_16_1 >= 0
-1 x_2_27_1 +1 x_2_13_1_sb +1 x_3_16_1 >= 0
-1 x_2_27_2 -1 x_2_13_2_sb -1 x_3_16_2 >= -2
+1 x_2_27_2 +1 x_2_13_2_sb -1 x_3_16_2 >= 0
+1 x_2_27_2 -1 x_2_13_2_sb +1 x_3_16_2 >= 0
-1 x_2_27_2 +1 x_2_13_2_sb +1 x_3_16_2 >= 0
-1 x_2_27_3 -1 x_2_13_3_sb -1 x_3_16_3 >= -2
+1 x_2_27_3 +1 x_2_13_3_sb -1 x_3_16_3 >= 0
+1 x_2_27_3 -1 x_2_13_3_sb +1 x_3_16_3 >= 0
-1 x_2_27_3 +1 x_2_13_3_sb +1 x_3_16_3 >= 0
-1 x_2_29_0 -1 x_2_14_0_sb -1 x_3_20_0 >= -2
+1 x_2_29_0 +1 x_2_14_0_sb -1 x_3_20_0 >= 0
+1 x_2_29_0 -1 x_2_14_0_sb +1 x_3_20_0 >= 0
-1 x_2_29_0 +1 x_2_14_0_sb +1 x_3_20_0 >= 0
-1 x_2_29_1 -1 x_2_14_1_sb -1 x_3_20_1 >= -2
+1 x_2_29_1 +1 x_2_14_1_sb -1 x_3_20_1 >= 0
+1 x_2_29_1 -1 x_2_14_1_sb +1 x_3_20_1 >= 0
-1 x_2_29_1 +1 x_2_14_1_sb +1 x_3_20_1 >= 0
-1 x_2_29_2 -1 x_2_14_2_sb -1 x_3_20_2 >= -2
+1 x_2_29_2 +1 x_2_14_2_sb -1 x_3_20_2 >= 0
+1 x_2_29_2 -1 x_2_14_2_sb +1 x_3_20_2 >= 0
-1 x_2_29_2 +1 x_2_14_2_sb +1 x_3_20_2 >= 0
-1 x_2_29_3 -1 x_2_14_3_sb -1 x_3_20_3 >= -2
+1 x_2_29_3 +1 x_2_14_3_sb -1 x_3_20_3 >= 0
+1 x_2_29_3 -1 x_2_14_3_sb +1 x_3_20_3 >= 0
-1 x_2_29_3 +1 x_2_14_3_sb +1 x_3_20_3 >= 0
-1 x_2_31_0 -1 x_2_15_0_sb -1 x_3_26_0 >= -2
+1 x_2_31_0 +1 x_2_15_0_sb -1 x_3_26_0 >= 0
+1 x_2_31_0 -1 x_2_15_0_sb +1 x_3_26_0 >= 0
-1 x_2_31_0 +1 x_2_15_0_sb +1 x_3_26_0 >= 0
-1 x_2_31_1 -1 x_2_15_1_sb -1 x_3_26_1 >= -2
+1 x_2_31_1 +1 x_2_15_1_sb -1 x_3_26_1 >= 0
+1 x_2_31_1 -1 x_2_15_1_sb +1 x_3_26_1 >= 0
-1 x_2_31_1 +1 x_2_15_1_sb +1 x_3_26_1 >= 0
-1 x_2_31_2 -1 x_2_15_2_sb -1 x_3_26_2 >= -2
+1 x_2_31_2 +1 x_2_15_2_sb -1 x_3_26_2 >= 0
+1 x_2_31_2 -1 x_2_15_2_sb +1 x_3_26_2 >= 0
-1 x_2_31_2 +1 x_2_15_2_sb +1 x_3_26_2 >= 0
-1 x_2_31_3 -1 x_2_15_3_sb -1 x_3_26_3 >= -2
+1 x_2_31_3 +1 x_2_15_3_sb -1 x_3_26_3 >= 0
+1 x_2_31_3 -1 x_2_15_3_sb +1 x_3_26_3 >= 0
-1 x_2_31_3 +1 x_2_15_3_sb +1 x_3_26_3 >= 0
x_3_31_0 - x_2_0_0 = 0
x_3_31_1 - x_2_0_1 = 0
x_3_31_2 - x_2_0_2 = 0
x_3_31_3 - x_2_0_3 = 0
x_3_29_0 - x_2_2_0 = 0
x_3_29_1 - x_2_2_1 = 0
x_3_29_2 - x_2_2_2 = 0
x_3_29_3 - x_2_2_3 = 0
x_3_1_0 - x_2_4_0 = 0
x_3_1_1 - x_2_4_1 = 0
x_3_1_2 - x_2_4_2 = 0
x_3_1_3 - x_2_4_3 = 0
x_3_21_0 - x_2_6_0 = 0
x_3_21_1 - x_2_6_1 = 0
x_3_21_2 - x_2_6_2 = 0
x_3_21_3 - x_2_6_3 = 0
x_3_27_0 - x_2_8_0 = 0
x_3_27_1 - x_2_8_1 = 0
x_3_27_2 - x_2_8_2 = 0
x_3_27_3 - x_2_8_3 = 0
x_3_3_0 - x_2_10_0 = 0
x_3_3_1 - x_2_10_1 = 0
x_3_3_2 - x_2_10_2 = 0
x_3_3_3 - x_2_10_3 = 0
x_3_25_0 - x_2_12_0 = 0
x_3_25_1 - x_2_12_1 = 0
x_3_25_2 - x_2_12_2 = 0
x_3_25_3 - x_2_12_3 = 0
x_3_23_0 - x_2_14_0 = 0
x_3_23_1 - x_2_14_1 = 0
x_3_23_2 - x_2_14_2 = 0
x_3_23_3 - x_2_14_3 = 0
x_3_15_0 - x_2_16_0 = 0
x_3_15_1 - x_2_16_1 = 0
x_3_15_2 - x_2_16_2 = 0
x_3_15_3 - x_2_16_3 = 0
x_3_13_0 - x_2_18_0 = 0
x_3_13_1 - x_2_18_1 = 0
x_3_13_2 - x_2_18_2 = 0
x_3_13_3 - x_2_18_3 = 0
x_3_17_0 - x_2_20_0 = 0
x_3_17_1 - x_2_20_1 = 0
x_3_17_2 - x_2_20_2 = 0
x_3_17_3 - x_2_20_3 = 0
x_3_5_0 - x_2_22_0 = 0
x_3_5_1 - x_2_22_1 = 0
x_3_5_2 - x_2_22_2 = 0
x_3_5_3 - x_2_22_3 = 0
x_3_11_0 - x_2_24_0 = 0
x_3_11_1 - x_2_24_1 = 0
x_3_11_2 - x_2_24_2 = 0
x_3_11_3 - x_2_24_3 = 0
x_3_19_0 - x_2_26_0 = 0
x_3_19_1 - x_2_26_1 = 0
x_3_19_2 - x_2_26_2 = 0
x_3_19_3 - x_2_26_3 = 0
x_3_9_0 - x_2_28_0 = 0
x_3_9_1 - x_2_28_1 = 0
x_3_9_2 - x_2_28_2 = 0
x_3_9_3 - x_2_28_3 = 0
x_3_7_0 - x_2_30_0 = 0
x_3_7_1 - x_2_30_1 = 0
x_3_7_2 - x_2_30_2 = 0
x_3_7_3 - x_2_30_3 = 0
+0 x_3_0_0 +0 x_3_0_1 +0 x_3_0_2 +0 x_3_0_3 +0 x_3_0_0_sb +0 x_3_0_1_sb +0 x_3_0_2_sb +0 x_3_0_3_sb -1 p0_3_0 -1 p1_3_0 >= -1
+0 x_3_0_0 +0 x_3_0_1 +0 x_3_0_2 +0 x_3_0_3 +0 x_3_0_0_sb +0 x_3_0_1_sb +0 x_3_0_2_sb -1 x_3_0_3_sb +1 p0_3_0 +1 p1_3_0 >= 0
+0 x_3_0_0 +0 x_3_0_1 +0 x_3_0_2 +0 x_3_0_3 +0 x_3_0_0_sb -1 x_3_0_1_sb +0 x_3_0_2_sb +0 x_3_0_3_sb +1 p0_3_0 +1 p1_3_0 >= 0
+0 x_3_0_0 +0 x_3_0_1 +0 x_3_0_2 +0 x_3_0_3 -1 x_3_0_0_sb +0 x_3_0_1_sb +0 x_3_0_2_sb +0 x_3_0_3_sb +1 p0_3_0 +1 p1_3_0 >= 0
+0 x_3_0_0 +0 x_3_0_1 +0 x_3_0_2 +0 x_3_0_3 +1 x_3_0_0_sb +1 x_3_0_1_sb +1 x_3_0_2_sb +1 x_3_0_3_sb +0 p0_3_0 -1 p1_3_0 >= 0
+0 x_3_0_0 +0 x_3_0_1 +0 x_3_0_2 -1 x_3_0_3 +1 x_3_0_0_sb +1 x_3_0_1_sb +0 x_3_0_2_sb +1 x_3_0_3_sb +0 p0_3_0 +1 p1_3_0 >= 0
-1 x_3_0_0 +0 x_3_0_1 -1 x_3_0_2 +0 x_3_0_3 +1 x_3_0_0_sb +0 x_3_0_1_sb +0 x_3_0_2_sb +1 x_3_0_3_sb +0 p0_3_0 -1 p1_3_0 >= -2
+1 x_3_0_0 +0 x_3_0_1 +1 x_3_0_2 +0 x_3_0_3 +1 x_3_0_0_sb +0 x_3_0_1_sb +1 x_3_0_2_sb +0 x_3_0_3_sb +0 p0_3_0 -1 p1_3_0 >= 0
+0 x_3_0_0 +0 x_3_0_1 +0 x_3_0_2 +1 x_3_0_3 +0 x_3_0_0_sb +1 x_3_0_1_sb -1 x_3_0_2_sb -1 x_3_0_3_sb +0 p0_3_0 -1 p1_3_0 >= -2
-1 x_3_0_0 +0 x_3_0_1 +0 x_3_0_2 -1 x_3_0_3 -1 x_3_0_0_sb +0 x_3_0_1_sb +0 x_3_0_2_sb +1 x_3_0_3_sb +0 p0_3_0 -1 p1_3_0 >= -3
+0 x_3_0_0 +0 x_3_0_1 +0 x_3_0_2 +1 x_3_0_3 -1 x_3_0_0_sb -1 x_3_0_1_sb -1 x_3_0_2_sb +0 x_3_0_3_sb +0 p0_3_0 -1 p1_3_0 >= -3
+1 x_3_0_0 +1 x_3_0_1 +0 x_3_0_2 +1 x_3_0_3 +0 x_3_0_0_sb +0 x_3_0_1_sb +0 x_3_0_2_sb +0 x_3_0_3_sb -1 p0_3_0 +0 p1_3_0 >= 0
+0 x_3_0_0 +0 x_3_0_1 +1 x_3_0_2 +1 x_3_0_3 +0 x_3_0_0_sb -1 x_3_0_1_sb +1 x_3_0_2_sb +0 x_3_0_3_sb +0 p0_3_0 -1 p1_3_0 >= -1
+0 x_3_0_0 +1 x_3_0_1 +0 x_3_0_2 -1 x_3_0_3 -1 x_3_0_0_sb +0 x_3_0_1_sb -1 x_3_0_2_sb +0 x_3_0_3_sb +0 p0_3_0 -1 p1_3_0 >= -3
+0 x_3_0_0 +1 x_3_0_1 +1 x_3_0_2 +0 x_3_0_3 +0 x_3_0_0_sb +0 x_3_0_1_sb +1 x_3_0_2_sb -1 x_3_0_3_sb +0 p0_3_0 -1 p1_3_0 >= -1
-1 x_3_0_0 +0 x_3_0_1 -1 x_3_0_2 +0 x_3_0_3 -1 x_3_0_0_sb +0 x_3_0_1_sb +1 x_3_0_2_sb +0 x_3_0_3_sb +0 p0_3_0 -1 p1_3_0 >= -3
+0 x_3_0_0 -1 x_3_0_1 -1 x_3_0_2 +0 x_3_0_3 +0 x_3_0_0_sb +1 x_3_0_1_sb +0 x_3_0_2_sb +1 x_3_0_3_sb +0 p0_3_0 -1 p1_3_0 >= -2
+0 x_3_0_0 -1 x_3_0_1 +0 x_3_0_2 +0 x_3_0_3 +1 x_3_0_0_sb +1 x_3_0_1_sb +0 x_3_0_2_sb +1 x_3_0_3_sb +0 p0_3_0 +1 p1_3_0 >= 0
-1 x_3_0_0 -1 x_3_0_1 +0 x_3_0_2 +1 x_3_0_3 +0 x_3_0_0_sb +1 x_3_0_1_sb +0 x_3_0_2_sb +1 x_3_0_3_sb +0 p0_3_0 -1 p1_3_0 >= -2
+0 x_3_0_0 -1 x_3_0_1 +0 x_3_0_2 +0 x_3_0_3 +1 x_3_0_0_sb +0 x_3_0_1_sb +1 x_3_0_2_sb +1 x_3_0_3_sb +0 p0_3_0 -1 p1_3_0 >= -1
-1 x_3_0_0 +0 x_3_0_1 -1 x_3_0_2 +0 x_3_0_3 +1 x_3_0_0_sb +1 x_3_0_1_sb +0 x_3_0_2_sb +0 x_3_0_3_sb +0 p0_3_0 -1 p1_3_0 >= -2
+0 x_3_0_0 +1 x_3_0_1 -1 x_3_0_2 -1 x_3_0_3 +0 x_3_0_0_sb +0 x_3_0_1_sb +0 x_3_0_2_sb +1 x_3_0_3_sb +0 p0_3_0 -1 p1_3_0 >= -2
-1 x_3_0_0 -1 x_3_0_1 +0 x_3_0_2 -1 x_3_0_3 +0 x_3_0_0_sb +1 x_3_0_1_sb +0 x_3_0_2_sb -1 x_3_0_3_sb +0 p0_3_0 -1 p1_3_0 >= -4
-1 x_3_0_0 +1 x_3_0_1 +0 x_3_0_2 +1 x_3_0_3 +0 x_3_0_0_sb +1 x_3_0_1_sb +0 x_3_0_2_sb +1 x_3_0_3_sb +0 p0_3_0 +1 p1_3_0 >= 0
+0 x_3_0_0 +0 x_3_0_1 +0 x_3_0_2 +0 x_3_0_3 +1 x_3_0_0_sb -1 x_3_0_1_sb +0 x_3_0_2_sb -1 x_3_0_3_sb +0 p0_3_0 +1 p1_3_0 >= -1
+1 x_3_0_0 +0 x_3_0_1 +1 x_3_0_2 +0 x_3_0_3 +1 x_3_0_0_sb -1 x_3_0_1_sb +0 x_3_0_2_sb +0 x_3_0_3_sb +0 p0_3_0 -1 p1_3_0 >= -1
+0 x_3_0_0 +1 x_3_0_1 +0 x_3_0_2 +1 x_3_0_3 +0 x_3_0_0_sb -1 x_3_0_1_sb -1 x_3_0_2_sb +0 x_3_0_3_sb +0 p0_3_0 -1 p1_3_0 >= -2
+1 x_3_0_0 -1 x_3_0_1 +0 x_3_0_2 -1 x_3_0_3 +0 x_3_0_0_sb +0 x_3_0_1_sb +1 x_3_0_2_sb +0 x_3_0_3_sb +0 p0_3_0 +0 p1_3_0 >= -1
+1 x_3_0_0 -1 x_3_0_1 -1 x_3_0_2 +0 x_3_0_3 +0 x_3_0_0_sb +0 x_3_0_1_sb +1 x_3_0_2_sb -1 x_3_0_3_sb +0 p0_3_0 -1 p1_3_0 >= -3
+1 x_3_0_0 -1 x_3_0_1 +0 x_3_0_2 -1 x_3_0_3 +0 x_3_0_0_sb +0 x_3_0_1_sb +0 x_3_0_2_sb +0 x_3_0_3_sb +0 p0_3_0 +1 p1_3_0 >= -1
+1 x_3_0_0 +0 x_3_0_1 +0 x_3_0_2 +0 x_3_0_3 -1 x_3_0_0_sb +1 x_3_0_1_sb +0 x_3_0_2_sb -1 x_3_0_3_sb +0 p0_3_0 +1 p1_3_0 >= -1
+1 x_3_0_0 +0 x_3_0_1 +0 x_3_0_2 +0 x_3_0_3 -1 x_3_0_0_sb -1 x_3_0_1_sb +0 x_3_0_2_sb +1 x_3_0_3_sb +0 p0_3_0 +1 p1_3_0 >= -1
-1 x_3_0_0 -1 x_3_0_1 +0 x_3_0_2 +1 x_3_0_3 +1 x_3_0_0_sb +0 x_3_0_1_sb +0 x_3_0_2_sb +0 x_3_0_3_sb +0 p0_3_0 +1 p1_3_0 >= -1
-1 x_3_0_0 +1 x_3_0_1 +0 x_3_0_2 -1 x_3_0_3 +1 x_3_0_0_sb +0 x_3_0_1_sb +0 x_3_0_2_sb +0 x_3_0_3_sb +0 p0_3_0 +1 p1_3_0 >= -1
+0 x_3_0_0 -1 x_3_0_1 +0 x_3_0_2 -1 x_3_0_3 +0 x_3_0_0_sb -1 x_3_0_1_sb +0 x_3_0_2_sb -1 x_3_0_3_sb +0 p0_3_0 +1 p1_3_0 >= -3
+1 x_3_0_0 +1 x_3_0_1 +0 x_3_0_2 +1 x_3_0_3 +0 x_3_0_0_sb +0 x_3_0_1_sb -1 x_3_0_2_sb +0 x_3_0_3_sb +0 p0_3_0 +0 p1_3_0 >= 0
-1 x_3_0_0 +0 x_3_0_1 +1 x_3_0_2 -1 x_3_0_3 +0 x_3_0_0_sb -1 x_3_0_1_sb -1 x_3_0_2_sb +0 x_3_0_3_sb +0 p0_3_0 -1 p1_3_0 >= -4
+1 x_3_0_0 +1 x_3_0_1 +0 x_3_0_2 -1 x_3_0_3 +1 x_3_0_0_sb +1 x_3_0_1_sb +0 x_3_0_2_sb -1 x_3_0_3_sb +0 p0_3_0 -1 p1_3_0 >= -2
+1 x_3_0_0 +0 x_3_0_1 +1 x_3_0_2 +0 x_3_0_3 +0 x_3_0_0_sb +1 x_3_0_1_sb +1 x_3_0_2_sb +1 x_3_0_3_sb +0 p0_3_0 -1 p1_3_0 >= 0
+1 x_3_0_0 +0 x_3_0_1 -1 x_3_0_2 -1 x_3_0_3 -1 x_3_0_0_sb -1 x_3_0_1_sb +0 x_3_0_2_sb -1 x_3_0_3_sb +0 p0_3_0 -1 p1_3_0 >= -5
+0 x_3_0_0 +0 x_3_0_1 +1 x_3_0_2 +1 x_3_0_3 -1 x_3_0_0_sb +0 x_3_0_1_sb -1 x_3_0_2_sb +0 x_3_0_3_sb +0 p0_3_0 -1 p1_3_0 >= -2
+0 x_3_0_0 +0 x_3_0_1 +1 x_3_0_2 +0 x_3_0_3 +1 x_3_0_0_sb -1 x_3_0_1_sb +0 x_3_0_2_sb -1 x_3_0_3_sb +0 p0_3_0 +0 p1_3_0 >= -1
+0 x_3_0_0 -1 x_3_0_1 +0 x_3_0_2 -1 x_3_0_3 +0 x_3_0_0_sb +1 x_3_0_1_sb +0 x_3_0_2_sb +1 x_3_0_3_sb +0 p0_3_0 +1 p1_3_0 >= -1
+0 x_3_0_0 +1 x_3_0_1 +0 x_3_0_2 +1 x_3_0_3 +0 x_3_0_0_sb -1 x_3_0_1_sb +0 x_3_0_2_sb -1 x_3_0_3_sb +0 p0_3_0 +1 p1_3_0 >= -1
+1 x_3_0_0 -1 x_3_0_1 +1 x_3_0_2 -1 x_3_0_3 +1 x_3_0_0_sb +0 x_3_0_1_sb +0 x_3_0_2_sb +0 x_3_0_3_sb +0 p0_3_0 +0 p1_3_0 >= -1
+1 x_3_0_0 +0 x_3_0_1 +0 x_3_0_2 +0 x_3_0_3 +1 x_3_0_0_sb -1 x_3_0_1_sb +1 x_3_0_2_sb -1 x_3_0_3_sb +0 p0_3_0 +0 p1_3_0 >= -1
+0 x_3_0_0 -1 x_3_0_1 +0 x_3_0_2 -1 x_3_0_3 +1 x_3_0_0_sb -1 x_3_0_1_sb -1 x_3_0_2_sb -1 x_3_0_3_sb +0 p0_3_0 +0 p1_3_0 >= -4
+1 x_3_0_0 +0 x_3_0_1 +0 x_3_0_2 +1 x_3_0_3 +0 x_3_0_0_sb -1 x_3_0_1_sb -1 x_3_0_2_sb +1 x_3_0_3_sb +0 p0_3_0 -1 p1_3_0 >= -2
+0 x_3_0_0 +0 x_3_0_1 -1 x_3_0_2 +1 x_3_0_3 -1 x_3_0_0_sb +1 x_3_0_1_sb +0 x_3_0_2_sb -1 x_3_0_3_sb +0 p0_3_0 -1 p1_3_0 >= -3
+0 x_3_0_0 +1 x_3_0_1 +0 x_3_0_2 +1 x_3_0_3 -1 x_3_0_0_sb -1 x_3_0_1_sb +0 x_3_0_2_sb +1 x_3_0_3_sb +0 p0_3_0 -1 p1_3_0 >= -2
-1 x_3_0_0 +1 x_3_0_1 +0 x_3_0_2 -1 x_3_0_3 +0 x_3_0_0_sb +0 x_3_0_1_sb -1 x_3_0_2_sb +1 x_3_0_3_sb +0 p0_3_0 -1 p1_3_0 >= -3
-1 x_3_0_0 +0 x_3_0_1 +0 x_3_0_2 +0 x_3_0_3 -1 x_3_0_0_sb +1 x_3_0_1_sb +0 x_3_0_2_sb -1 x_3_0_3_sb +0 p0_3_0 -1 p1_3_0 >= -3
+0 x_3_0_0 +0 x_3_0_1 -1 x_3_0_2 +0 x_3_0_3 +1 x_3_0_0_sb +1 x_3_0_1_sb +0 x_3_0_2_sb +1 x_3_0_3_sb +0 p0_3_0 +0 p1_3_0 >= 0
+0 x_3_2_0 +0 x_3_2_1 +0 x_3_2_2 +0 x_3_2_3 +0 x_3_1_0_sb +0 x_3_1_1_sb +0 x_3_1_2_sb +0 x_3_1_3_sb -1 p0_3_1 -1 p1_3_1 >= -1
+0 x_3_2_0 +0 x_3_2_1 +0 x_3_2_2 +0 x_3_2_3 +0 x_3_1_0_sb +0 x_3_1_1_sb +0 x_3_1_2_sb -1 x_3_1_3_sb +1 p0_3_1 +1 p1_3_1 >= 0
+0 x_3_2_0 +0 x_3_2_1 +0 x_3_2_2 +0 x_3_2_3 +0 x_3_1_0_sb -1 x_3_1_1_sb +0 x_3_1_2_sb +0 x_3_1_3_sb +1 p0_3_1 +1 p1_3_1 >= 0
+0 x_3_2_0 +0 x_3_2_1 +0 x_3_2_2 +0 x_3_2_3 -1 x_3_1_0_sb +0 x_3_1_1_sb +0 x_3_1_2_sb +0 x_3_1_3_sb +1 p0_3_1 +1 p1_3_1 >= 0
+0 x_3_2_0 +0 x_3_2_1 +0 x_3_2_2 +0 x_3_2_3 +1 x_3_1_0_sb +1 x_3_1_1_sb +1 x_3_1_2_sb +1 x_3_1_3_sb +0 p0_3_1 -1 p1_3_1 >= 0
+0 x_3_2_0 +0 x_3_2_1 +0 x_3_2_2 -1 x_3_2_3 +1 x_3_1_0_sb +1 x_3_1_1_sb +0 x_3_1_2_sb +1 x_3_1_3_sb +0 p0_3_1 +1 p1_3_1 >= 0
-1 x_3_2_0 +0 x_3_2_1 -1 x_3_2_2 +0 x_3_2_3 +1 x_3_1_0_sb +0 x_3_1_1_sb +0 x_3_1_2_sb +1 x_3_1_3_sb +0 p0_3_1 -1 p1_3_1 >= -2
+1 x_3_2_0 +0 x_3_2_1 +1 x_3_2_2 +0 x_3_2_3 +1 x_3_1_0_sb +0 x_3_1_1_sb +1 x_3_1_2_sb +0 x_3_1_3_sb +0 p0_3_1 -1 p1_3_1 >= 0
+0 x_3_2_0 +0 x_3_2_1 +0 x_3_2_2 +1 x_3_2_3 +0 x_3_1_0_sb +1 x_3_1_1_sb -1 x_3_1_2_sb -1 x_3_1_3_sb +0 p0_3_1 -1 p1_3_1 >= -2
-1 x_3_2_0 +0 x_3_2_1 +0 x_3_2_2 -1 x_3_2_3 -1 x_3_1_0_sb +0 x_3_1_1_sb +0 x_3_1_2_sb +1 x_3_1_3_sb +0 p0_3_1 -1 p1_3_1 >= -3
+0 x_3_2_0 +0 x_3_2_1 +0 x_3_2_2 +1 x_3_2_3 -1 x_3_1_0_sb -1 x_3_1_1_sb -1 x_3_1_2_sb +0 x_3_1_3_sb +0 p0_3_1 -1 p1_3_1 >= -3
+1 x_3_2_0 +1 x_3_2_1 +0 x_3_2_2 +1 x_3_2_3 +0 x_3_1_0_sb +0 x_3_1_1_sb +0 x_3_1_2_sb +0 x_3_1_3_sb -1 p0_3_1 +0 p1_3_1 >= 0
+0 x_3_2_0 +0 x_3_2_1 +1 x_3_2_2 +1 x_3_2_3 +0 x_3_1_0_sb -1 x_3_1_1_sb +1 x_3_1_2_sb +0 x_3_1_3_sb +0 p0_3_1 -1 p1_3_1 >= -1
+0 x_3_2_0 +1 x_3_2_1 +0 x_3_2_2 -1 x_3_2_3 -1 x_3_1_0_sb +0 x_3_1_1_sb -1 x_3_1_2_sb +0 x_3_1_3_sb +0 p0_3_1 -1 p1_3_1 >= -3
+0 x_3_2_0 +1 x_3_2_1 +1 x_3_2_2 +0 x_3_2_3 +0 x_3_1_0_sb +0 x_3_1_1_sb +1 x_3_1_2_sb -1 x_3_1_3_sb +0 p0_3_1 -1 p1_3_1 >= -1
-1 x_3_2_0 +0 x_3_2_1 -1 x_3_2_2 +0 x_3_2_3 -1 x_3_1_0_sb +0 x_3_1_1_sb +1 x_3_1_2_sb +0 x_3_1_3_sb +0 p0_3_1 -1 p1_3_1 >= -3
+0 x_3_2_0 -1 x_3_2_1 -1 x_3_2_2 +0 x_3_2_3 +0 x_3_1_0_sb +1 x_3_1_1_sb +0 x_3_1_2_sb +1 x_3_1_3_sb +0 p0_3_1 -1 p1_3_1 >= -2
+0 x_3_2_0 -1 x_3_2_1 +0 x_3_2_2 +0 x_3_2_3 +1 x_3_1_0_sb +1 x_3_1_1_sb +0 x_3_1_2_sb +1 x_3_1_3_sb +0 p0_3_1 +1 p1_3_1 >= 0
-1 x_3_2_0 -1 x_3_2_1 +0 x_3_2_2 +1 x_3_2_3 +0 x_3_1_0_sb +1 x_3_1_1_sb +0 x_3_1_2_sb +1 x_3_1_3_sb +0 p0_3_1 -1 p1_3_1 >= -2
+0 x_3_2_0 -1 x_3_2_1 +0 x_3_2_2 +0 x_3_2_3 +1 x_3_1_0_sb +0 x_3_1_1_sb +1 x_3_1_2_sb +1 x_3_1_3_sb +0 p0_3_1 -1 p1_3_1 >= -1
-1 x_3_2_0 +0 x_3_2_1 -1 x_3_2_2 +0 x_3_2_3 +1 x_3_1_0_sb +1 x_3_1_1_sb +0 x_3_1_2_sb +0 x_3_1_3_sb +0 p0_3_1 -1 p1_3_1 >= -2
+0 x_3_2_0 +1 x_3_2_1 -1 x_3_2_2 -1 x_3_2_3 +0 x_3_1_0_sb +0 x_3_1_1_sb +0 x_3_1_2_sb +1 x_3_1_3_sb +0 p0_3_1 -1 p1_3_1 >= -2
-1 x_3_2_0 -1 x_3_2_1 +0 x_3_2_2 -1 x_3_2_3 +0 x_3_1_0_sb +1 x_3_1_1_sb +0 x_3_1_2_sb -1 x_3_1_3_sb +0 p0_3_1 -1 p1_3_1 >= -4
-1 x_3_2_0 +1 x_3_2_1 +0 x_3_2_2 +1 x_3_2_3 +0 x_3_1_0_sb +1 x_3_1_1_sb +0 x_3_1_2_sb +1 x_3_1_3_sb +0 p0_3_1 +1 p1_3_1 >= 0
+0 x_3_2_0 +0 x_3_2_1 +0 x_3_2_2 +0 x_3_2_3 +1 x_3_1_0_sb -1 x_3_1_1_sb +0 x_3_1_2_sb -1 x_3_1_3_sb +0 p0_3_1 +1 p1_3_1 >= -1
+1 x_3_2_0 +0 x_3_2_1 +1 x_3_2_2 +0 x_3_2_3 +1 x_3_1_0_sb -1 x_3_1_1_sb +0 x_3_1_2_sb +0 x_3_1_3_sb +0 p0_3_1 -1 p1_3_1 >= -1
+0 x_3_2_0 +1 x_3_2_1 +0 x_3_2_2 +1 x_3_2_3 +0 x_3_1_0_sb -1 x_3_1_1_sb -1 x_3_1_2_sb +0 x_3_1_3_sb +0 p0_3_1 -1 p1_3_1 >= -2
+1 x_3_2_0 -1 x_3_2_1 +0 x_3_2_2 -1 x_3_2_3 +0 x_3_1_0_sb +0 x_3_1_1_sb +1 x_3_1_2_sb +0 x_3_1_3_sb +0 p0_3_1 +0 p1_3_1 >= -1
+1 x_3_2_0 -1 x_3_2_1 -1 x_3_2_2 +0 x_3_2_3 +0 x_3_1_0_sb +0 x_3_1_1_sb +1 x_3_1_2_sb -1 x_3_1_3_sb +0 p0_3_1 -1 p1_3_1 >= -3
+1 x_3_2_0 -1 x_3_2_1 +0 x_3_2_2 -1 x_3_2_3 +0 x_3_1_0_sb +0 x_3_1_1_sb +0 x_3_1_2_sb +0 x_3_1_3_sb +0 p0_3_1 +1 p1_3_1 >= -1
+1 x_3_2_0 +0 x_3_2_1 +0 x_3_2_2 +0 x_3_2_3 -1 x_3_1_0_sb +1 x_3_1_1_sb +0 x_3_1_2_sb -1 x_3_1_3_sb +0 p0_3_1 +1 p1_3_1 >= -1
+1 x_3_2_0 +0 x_3_2_1 +0 x_3_2_2 +0 x_3_2_3 -1 x_3_1_0_sb -1 x_3_1_1_sb +0 x_3_1_2_sb +1 x_3_1_3_sb +0 p0_3_1 +1 p1_3_1 >= -1
-1 x_3_2_0 -1 x_3_2_1 +0 x_3_2_2 +1 x_3_2_3 +1 x_3_1_0_sb +0 x_3_1_1_sb +0 x_3_1_2_sb +0 x_3_1_3_sb +0 p0_3_1 +1 p1_3_1 >= -1
-1 x_3_2_0 +1 x_3_2_1 +0 x_3_2_2 -1 x_3_2_3 +1 x_3_1_0_sb +0 x_3_1_1_sb +0 x_3_1_2_sb +0 x_3_1_3_sb +0 p0_3_1 +1 p1_3_1 >= -1
+0 x_3_2_0 -1 x_3_2_1 +0 x_3_2_2 -1 x_3_2_3 +0 x_3_1_0_sb -1 x_3_1_1_sb +0 x_3_1_2_sb -1 x_3_1_3_sb +0 p0_3_1 +1 p1_3_1 >= -3
+1 x_3_2_0 +1 x_3_2_1 +0 x_3_2_2 +1 x_3_2_3 +0 x_3_1_0_sb +0 x_3_1_1_sb -1 x_3_1_2_sb +0 x_3_1_3_sb +0 p0_3_1 +0 p1_3_1 >= 0
-1 x_3_2_0 +0 x_3_2_1 +1 x_3_2_2 -1 x_3_2_3 +0 x_3_1_0_sb -1 x_3_1_1_sb -1 x_3_1_2_sb +0 x_3_1_3_sb +0 p0_3_1 -1 p1_3_1 >= -4
+1 x_3_2_0 +1 x_3_2_1 +0 x_3_2_2 -1 x_3_2_3 +1 x_3_1_0_sb +1 x_3_1_1_sb +0 x_3_1_2_sb -1 x_3_1_3_sb +0 p0_3_1 -1 p1_3_1 >= -2
+1 x_3_2_0 +0 x_3_2_1 +1 x_3_2_2 +0 x_3_2_3 +0 x_3_1_0_sb +1 x_3_1_1_sb +1 x_3_1_2_sb +1 x_3_1_3_sb +0 p0_3_1 -1 p1_3_1 >= 0
+1 x_3_2_0 +0 x_3_2_1 -1 x_3_2_2 -1 x_3_2_3 -1 x_3_1_0_sb -1 x_3_1_1_sb +0 x_3_1_2_sb -1 x_3_1_3_sb +0 p0_3_1 -1 p1_3_1 >= -5
+0 x_3_2_0 +0 x_3_2_1 +1 x_3_2_2 +1 x_3_2_3 -1 x_3_1_0_sb +0 x_3_1_1_sb -1 x_3_1_2_sb +0 x_3_1_3_sb +0 p0_3_1 -1 p1_3_1 >= -2
+0 x_3_2_0 +0 x_3_2_1 +1 x_3_2_2 +0 x_3_2_3 +1 x_3_1_0_sb -1 x_3_1_1_sb +0 x_3_1_2_sb -1 x_3_1_3_sb +0 p0_3_1 +0 p1_3_1 >= -1
+0 x_3_2_0 -1 x_3_2_1 +0 x_3_2_2 -1 x_3_2_3 +0 x_3_1_0_sb +1 x_3_1_1_sb +0 x_3_1_2_sb +1 x_3_1_3_sb +0 p0_3_1 +1 p1_3_1 >= -1
+0 x_3_2_0 +1 x_3_2_1 +0 x_3_2_2 +1 x_3_2_3 +0 x_3_1_0_sb -1 x_3_1_1_sb +0 x_3_1_2_sb -1 x_3_1_3_sb +0 p0_3_1 +1 p1_3_1 >= -1
+1 x_3_2_0 -1 x_3_2_1 +1 x_3_2_2 -1 x_3_2_3 +1 x_3_1_0_sb +0 x_3_1_1_sb +0 x_3_1_2_sb +0 x_3_1_3_sb +0 p0_3_1 +0 p1_3_1 >= -1
+1 x_3_2_0 +0 x_3_2_1 +0 x_3_2_2 +0 x_3_2_3 +1 x_3_1_0_sb -1 x_3_1_1_sb +1 x_3_1_2_sb -1 x_3_1_3_sb +0 p0_3_1 +0 p1_3_1 >= -1
+0 x_3_2_0 -1 x_3_2_1 +0 x_3_2_2 -1 x_3_2_3 +1 x_3_1_0_sb -1 x_3_1_1_sb -1 x_3_1_2_sb -1 x_3_1_3_sb +0 p0_3_1 +0 p1_3_1 >= -4
+1 x_3_2_0 +0 x_3_2_1 +0 x_3_2_2 +1 x_3_2_3 +0 x_3_1_0_sb -1 x_3_1_1_sb -1 x_3_1_2_sb +1 x_3_1_3_sb +0 p0_3_1 -1 p1_3_1 >= -2
+0 x_3_2_0 +0 x_3_2_1 -1 x_3_2_2 +1 x_3_2_3 -1 x_3_1_0_sb +1 x_3_1_1_sb +0 x_3_1_2_sb -1 x_3_1_3_sb +0 p0_3_1 -1 p1_3_1 >= -3
+0 x_3_2_0 +1 x_3_2_1 +0 x_3_2_2 +1 x_3_2_3 -1 x_3_1_0_sb -1 x_3_1_1_sb +0 x_3_1_2_sb +1 x_3_1_3_sb +0 p0_3_1 -1 p1_3_1 >= -2
-1 x_3_2_0 +1 x_3_2_1 +0 x_3_2_2 -1 x_3_2_3 +0 x_3_1_0_sb +0 x_3_1_1_sb -1 x_3_1_2_sb +1 x_3_1_3_sb +0 p0_3_1 -1 p1_3_1 >= -3
-1 x_3_2_0 +0 x_3_2_1 +0 x_3_2_2 +0 x_3_2_3 -1 x_3_1_0_sb +1 x_3_1_1_sb +0 x_3_1_2_sb -1 x_3_1_3_sb +0 p0_3_1 -1 p1_3_1 >= -3
+0 x_3_2_0 +0 x_3_2_1 -1 x_3_2_2 +0 x_3_2_3 +1 x_3_1_0_sb +1 x_3_1_1_sb +0 x_3_1_2_sb +1 x_3_1_3_sb +0 p0_3_1 +0 p1_3_1 >= 0
+0 x_3_4_0 +0 x_3_4_1 +0 x_3_4_2 +0 x_3_4_3 +0 x_3_2_0_sb +0 x_3_2_1_sb +0 x_3_2_2_sb +0 x_3_2_3_sb -1 p0_3_2 -1 p1_3_2 >= -1
+0 x_3_4_0 +0 x_3_4_1 +0 x_3_4_2 +0 x_3_4_3 +0 x_3_2_0_sb +0 x_3_2_1_sb +0 x_3_2_2_sb -1 x_3_2_3_sb +1 p0_3_2 +1 p1_3_2 >= 0
+0 x_3_4_0 +0 x_3_4_1 +0 x_3_4_2 +0 x_3_4_3 +0 x_3_2_0_sb -1 x_3_2_1_sb +0 x_3_2_2_sb +0 x_3_2_3_sb +1 p0_3_2 +1 p1_3_2 >= 0
+0 x_3_4_0 +0 x_3_4_1 +0 x_3_4_2 +0 x_3_4_3 -1 x_3_2_0_sb +0 x_3_2_1_sb +0 x_3_2_2_sb +0 x_3_2_3_sb +1 p0_3_2 +1 p1_3_2 >= 0
+0 x_3_4_0 +0 x_3_4_1 +0 x_3_4_2 +0 x_3_4_3 +1 x_3_2_0_sb +1 x_3_2_1_sb +1 x_3_2_2_sb +1 x_3_2_3_sb +0 p0_3_2 -1 p1_3_2 >= 0
+0 x_3_4_0 +0 x_3_4_1 +0 x_3_4_2 -1 x_3_4_3 +1 x_3_2_0_sb +1 x_3_2_1_sb +0 x_3_2_2_sb +1 x_3_2_3_sb +0 p0_3_2 +1 p1_3_2 >= 0
-1 x_3_4_0 +0 x_3_4_1 -1 x_3_4_2 +0 x_3_4_3 +1 x_3_2_0_sb +0 x_3_2_1_sb +0 x_3_2_2_sb +1 x_3_2_3_sb +0 p0_3_2 -1 p1_3_2 >= -2
+1 x_3_4_0 +0 x_3_4_1 +1 x_3_4_2 +0 x_3_4_3 +1 x_3_2_0_sb +0 x_3_2_1_sb +1 x_3_2_2_sb +0 x_3_2_3_sb +0 p0_3_2 -1 p1_3_2 >= 0
+0 x_3_4_0 +0 x_3_4_1 +0 x_3_4_2 +1 x_3_4_3 +0 x_3_2_0_sb +1 x_3_2_1_sb -1 x_3_2_2_sb -1 x_3_2_3_sb +0 p0_3_2 -1 p1_3_2 >= -2
-1 x_3_4_0 +0 x_3_4_1 +0 x_3_4_2 -1 x_3_4_3 -1 x_3_2_0_sb +0 x_3_2_1_sb +0 x_3_2_2_sb +1 x_3_2_3_sb +0 p0_3_2 -1 p1_3_2 >= -3
+0 x_3_4_0 +0 x_3_4_1 +0 x_3_4_2 +1 x_3_4_3 -1 x_3_2_0_sb -1 x_3_2_1_sb -1 x_3_2_2_sb +0 x_3_2_3_sb +0 p0_3_2 -1 p1_3_2 >= -3
+1 x_3_4_0 +1 x_3_4_1 +0 x_3_4_2 +1 x_3_4_3 +0 x_3_2_0_sb +0 x_3_2_1_sb +0 x_3_2_2_sb +0 x_3_2_3_sb -1 p0_3_2 +0 p1_3_2 >= 0
+0 x_3_4_0 +0 x_3_4_1 +1 x_3_4_2 +1 x_3_4_3 +0 x_3_2_0_sb -1 x_3_2_1_sb +1 x_3_2_2_sb +0 x_3_2_3_sb +0 p0_3_2 -1 p1_3_2 >= -1
+0 x_3_4_0 +1 x_3_4_1 +0 x_3_4_2 -1 x_3_4_3 -1 x_3_2_0_sb +0 x_3_2_1_sb -1 x_3_2_2_sb +0 x_3_2_3_sb +0 p0_3_2 -1 p1_3_2 >= -3
+0 x_3_4_0 +1 x_3_4_1 +1 x_3_4_2 +0 x_3_4_3 +0 x_3_2_0_sb +0 x_3_2_1_sb +1 x_3_2_2_sb -1 x_3_2_3_sb +0 p0_3_2 -1 p1_3_2 >= -1
-1 x_3_4_0 +0 x_3_4_1 -1 x_3_4_2 +0 x_3_4_3 -1 x_3_2_0_sb +0 x_3_2_1_sb +1 x_3_2_2_sb +0 x_3_2_3_sb +0 p0_3_2 -1 p1_3_2 >= -3
+0 x_3_4_0 -1 x_3_4_1 -1 x_3_4_2 +0 x_3_4_3 +0 x_3_2_0_sb +1 x_3_2_1_sb +0 x_3_2_2_sb +1 x_3_2_3_sb +0 p0_3_2 -1 p1_3_2 >= -2
+0 x_3_4_0 -1 x_3_4_1 +0 x_3_4_2 +0 x_3_4_3 +1 x_3_2_0_sb +1 x_3_2_1_sb +0 x_3_2_2_sb +1 x_3_2_3_sb +0 p0_3_2 +1 p1_3_2 >= 0
-1 x_3_4_0 -1 x_3_4_1 +0 x_3_4_2 +1 x_3_4_3 +0 x_3_2_0_sb +1 x_3_2_1_sb +0 x_3_2_2_sb +1 x_3_2_3_sb +0 p0_3_2 -1 p1_3_2 >= -2
+0 x_3_4_0 -1 x_3_4_1 +0 x_3_4_2 +0 x_3_4_3 +1 x_3_2_0_sb +0 x_3_2_1_sb +1 x_3_2_2_sb +1 x_3_2_3_sb +0 p0_3_2 -1 p1_3_2 >= -1
-1 x_3_4_0 +0 x_3_4_1 -1 x_3_4_2 +0 x_3_4_3 +1 x_3_2_0_sb +1 x_3_2_1_sb +0 x_3_2_2_sb +0 x_3_2_3_sb +0 p0_3_2 -1 p1_3_2 >= -2
+0 x_3_4_0 +1 x_3_4_1 -1 x_3_4_2 -1 x_3_4_3 +0 x_3_2_0_sb +0 x_3_2_1_sb +0 x_3_2_2_sb +1 x_3_2_3_sb +0 p0_3_2 -1 p1_3_2 >= -2
-1 x_3_4_0 -1 x_3_4_1 +0 x_3_4_2 -1 x_3_4_3 +0 x_3_2_0_sb +1 x_3_2_1_sb +0 x_3_2_2_sb -1 x_3_2_3_sb +0 p0_3_2 -1 p1_3_2 >= -4
-1 x_3_4_0 +1 x_3_4_1 +0 x_3_4_2 +1 x_3_4_3 +0 x_3_2_0_sb +1 x_3_2_1_sb +0 x_3_2_2_sb +1 x_3_2_3_sb +0 p0_3_2 +1 p1_3_2 >= 0
+0 x_3_4_0 +0 x_3_4_1 +0 x_3_4_2 +0 x_3_4_3 +1 x_3_2_0_sb -1 x_3_2_1_sb +0 x_3_2_2_sb -1 x_3_2_3_sb +0 p0_3_2 +1 p1_3_2 >= -1
+1 x_3_4_0 +0 x_3_4_1 +1 x_3_4_2 +0 x_3_4_3 +1 x_3_2_0_sb -1 x_3_2_1_sb +0 x_3_2_2_sb +0 x_3_2_3_sb +0 p0_3_2 -1 p1_3_2 >= -1
+0 x_3_4_0 +1 x_3_4_1 +0 x_3_4_2 +1 x_3_4_3 +0 x_3_2_0_sb -1 x_3_2_1_sb -1 x_3_2_2_sb +0 x_3_2_3_sb +0 p0_3_2 -1 p1_3_2 >= -2
+1 x_3_4_0 -1 x_3_4_1 +0 x_3_4_2 -1 x_3_4_3 +0 x_3_2_0_sb +0 x_3_2_1_sb +1 x_3_2_2_sb +0 x_3_2_3_sb +0 p0_3_2 +0 p1_3_2 >= -1
+1 x_3_4_0 -1 x_3_4_1 -1 x_3_4_2 +0 x_3_4_3 +0 x_3_2_0_sb +0 x_3_2_1_sb +1 x_3_2_2_sb -1 x_3_2_3_sb +0 p0_3_2 -1 p1_3_2 >= -3
+1 x_3_4_0 -1 x_3_4_1 +0 x_3_4_2 -1 x_3_4_3 +0 x_3_2_0_sb +0 x_3_2_1_sb +0 x_3_2_2_sb +0 x_3_2_3_sb +0 p0_3_2 +1 p1_3_2 >= -1
+1 x_3_4_0 +0 x_3_4_1 +0 x_3_4_2 +0 x_3_4_3 -1 x_3_2_0_sb +1 x_3_2_1_sb +0 x_3_2_2_sb -1 x_3_2_3_sb +0 p0_3_2 +1 p1_3_2 >= -1
+1 x_3_4_0 +0 x_3_4_1 +0 x_3_4_2 +0 x_3_4_3 -1 x_3_2_0_sb -1 x_3_2_1_sb +0 x_3_2_2_sb +1 x_3_2_3_sb +0 p0_3_2 +1 p1_3_2 >= -1
-1 x_3_4_0 -1 x_3_4_1 +0 x_3_4_2 +1 x_3_4_3 +1 x_3_2_0_sb +0 x_3_2_1_sb +0 x_3_2_2_sb +0 x_3_2_3_sb +0 p0_3_2 +1 p1_3_2 >= -1
-1 x_3_4_0 +1 x_3_4_1 +0 x_3_4_2 -1 x_3_4_3 +1 x_3_2_0_sb +0 x_3_2_1_sb +0 x_3_2_2_sb +0 x_3_2_3_sb +0 p0_3_2 +1 p1_3_2 >= -1
+0 x_3_4_0 -1 x_3_4_1 +0 x_3_4_2 -1 x_3_4_3 +0 x_3_2_0_sb -1 x_3_2_1_sb +0 x_3_2_2_sb -1 x_3_2_3_sb +0 p0_3_2 +1 p1_3_2 >= -3
+1 x_3_4_0 +1 x_3_4_1 +0 x_3_4_2 +1 x_3_4_3 +0 x_3_2_0_sb +0 x_3_2_1_sb -1 x_3_2_2_sb +0 x_3_2_3_sb +0 p0_3_2 +0 p1_3_2 >= 0
-1 x_3_4_0 +0 x_3_4_1 +1 x_3_4_2 -1 x_3_4_3 +0 x_3_2_0_sb -1 x_3_2_1_sb -1 x_3_2_2_sb +0 x_3_2_3_sb +0 p0_3_2 -1 p1_3_2 >= -4
+1 x_3_4_0 +1 x_3_4_1 +0 x_3_4_2 -1 x_3_4_3 +1 x_3_2_0_sb +1 x_3_2_1_sb +0 x_3_2_2_sb -1 x_3_2_3_sb +0 p0_3_2 -1 p1_3_2 >= -2
+1 x_3_4_0 +0 x_3_4_1 +1 x_3_4_2 +0 x_3_4_3 +0 x_3_2_0_sb +1 x_3_2_1_sb +1 x_3_2_2_sb +1 x_3_2_3_sb +0 p0_3_2 -1 p1_3_2 >= 0
+1 x_3_4_0 +0 x_3_4_1 -1 x_3_4_2 -1 x_3_4_3 -1 x_3_2_0_sb -1 x_3_2_1_sb +0 x_3_2_2_sb -1 x_3_2_3_sb +0 p0_3_2 -1 p1_3_2 >= -5
+0 x_3_4_0 +0 x_3_4_1 +1 x_3_4_2 +1 x_3_4_3 -1 x_3_2_0_sb +0 x_3_2_1_sb -1 x_3_2_2_sb +0 x_3_2_3_sb +0 p0_3_2 -1 p1_3_2 >= -2
+0 x_3_4_0 +0 x_3_4_1 +1 x_3_4_2 +0 x_3_4_3 +1 x_3_2_0_sb -1 x_3_2_1_sb +0 x_3_2_2_sb -1 x_3_2_3_sb +0 p0_3_2 +0 p1_3_2 >= -1
+0 x_3_4_0 -1 x_3_4_1 +0 x_3_4_2 -1 x_3_4_3 +0 x_3_2_0_sb +1 x_3_2_1_sb +0 x_3_2_2_sb +1 x_3_2_3_sb +0 p0_3_2 +1 p1_3_2 >= -1
+0 x_3_4_0 +1 x_3_4_1 +0 x_3_4_2 +1 x_3_4_3 +0 x_3_2_0_sb -1 x_3_2_1_sb +0 x_3_2_2_sb -1 x_3_2_3_sb +0 p0_3_2 +1 p1_3_2 >= -1
+1 x_3_4_0 -1 x_3_4_1 +1 x_3_4_2 -1 x_3_4_3 +1 x_3_2_0_sb +0 x_3_2_1_sb +0 x_3_2_2_sb +0 x_3_2_3_sb +0 p0_3_2 +0 p1_3_2 >= -1
+1 x_3_4_0 +0 x_3_4_1 +0 x_3_4_2 +0 x_3_4_3 +1 x_3_2_0_sb -1 x_3_2_1_sb +1 x_3_2_2_sb -1 x_3_2_3_sb +0 p0_3_2 +0 p1_3_2 >= -1
+0 x_3_4_0 -1 x_3_4_1 +0 x_3_4_2 -1 x_3_4_3 +1 x_3_2_0_sb -1 x_3_2_1_sb -1 x_3_2_2_sb -1 x_3_2_3_sb +0 p0_3_2 +0 p1_3_2 >= -4
+1 x_3_4_0 +0 x_3_4_1 +0 x_3_4_2 +1 x_3_4_3 +0 x_3_2_0_sb -1 x_3_2_1_sb -1 x_3_2_2_sb +1 x_3_2_3_sb +0 p0_3_2 -1 p1_3_2 >= -2
+0 x_3_4_0 +0 x_3_4_1 -1 x_3_4_2 +1 x_3_4_3 -1 x_3_2_0_sb +1 x_3_2_1_sb +0 x_3_2_2_sb -1 x_3_2_3_sb +0 p0_3_2 -1 p1_3_2 >= -3
+0 x_3_4_0 +1 x_3_4_1 +0 x_3_4_2 +1 x_3_4_3 -1 x_3_2_0_sb -1 x_3_2_1_sb +0 x_3_2_2_sb +1 x_3_2_3_sb +0 p0_3_2 -1 p1_3_2 >= -2
-1 x_3_4_0 +1 x_3_4_1 +0 x_3_4_2 -1 x_3_4_3 +0 x_3_2_0_sb +0 x_3_2_1_sb -1 x_3_2_2_sb +1 x_3_2_3_sb +0 p0_3_2 -1 p1_3_2 >= -3
-1 x_3_4_0 +0 x_3_4_1 +0 x_3_4_2 +0 x_3_4_3 -1 x_3_2_0_sb +1 x_3_2_1_sb +0 x_3_2_2_sb -1 x_3_2_3_sb +0 p0_3_2 -1 p1_3_2 >= -3
+0 x_3_4_0 +0 x_3_4_1 -1 x_3_4_2 +0 x_3_4_3 +1 x_3_2_0_sb +1 x_3_2_1_sb +0 x_3_2_2_sb +1 x_3_2_3_sb +0 p0_3_2 +0 p1_3_2 >= 0
+0 x_3_6_0 +0 x_3_6_1 +0 x_3_6_2 +0 x_3_6_3 +0 x_3_3_0_sb +0 x_3_3_1_sb +0 x_3_3_2_sb +0 x_3_3_3_sb -1 p0_3_3 -1 p1_3_3 >= -1
+0 x_3_6_0 +0 x_3_6_1 +0 x_3_6_2 +0 x_3_6_3 +0 x_3_3_0_sb +0 x_3_3_1_sb +0 x_3_3_2_sb -1 x_3_3_3_sb +1 p0_3_3 +1 p1_3_3 >= 0
+0 x_3_6_0 +0 x_3_6_1 +0 x_3_6_2 +0 x_3_6_3 +0 x_3_3_0_sb -1 x_3_3_1_sb +0 x_3_3_2_sb +0 x_3_3_3_sb +1 p0_3_3 +1 p1_3_3 >= 0
+0 x_3_6_0 +0 x_3_6_1 +0 x_3_6_2 +0 x_3_6_3 -1 x_3_3_0_sb +0 x_3_3_1_sb +0 x_3_3_2_sb +0 x_3_3_3_sb +1 p0_3_3 +1 p1_3_3 >= 0
+0 x_3_6_0 +0 x_3_6_1 +0 x_3_6_2 +0 x_3_6_3 +1 x_3_3_0_sb +1 x_3_3_1_sb +1 x_3_3_2_sb +1 x_3_3_3_sb +0 p0_3_3 -1 p1_3_3 >= 0
+0 x_3_6_0 +0 x_3_6_1 +0 x_3_6_2 -1 x_3_6_3 +1 x_3_3_0_sb +1 x_3_3_1_sb +0 x_3_3_2_sb +1 x_3_3_3_sb +0 p0_3_3 +1 p1_3_3 >= 0
-1 x_3_6_0 +0 x_3_6_1 -1 x_3_6_2 +0 x_3_6_3 +1 x_3_3_0_sb +0 x_3_3_1_sb +0 x_3_3_2_sb +1 x_3_3_3_sb +0 p0_3_3 -1 p1_3_3 >= -2
+1 x_3_6_0 +0 x_3_6_1 +1 x_3_6_2 +0 x_3_6_3 +1 x_3_3_0_sb +0 x_3_3_1_sb +1 x_3_3_2_sb +0 x_3_3_3_sb +0 p0_3_3 -1 p1_3_3 >= 0
+0 x_3_6_0 +0 x_3_6_1 +0 x_3_6_2 +1 x_3_6_3 +0 x_3_3_0_sb +1 x_3_3_1_sb -1 x_3_3_2_sb -1 x_3_3_3_sb +0 p0_3_3 -1 p1_3_3 >= -2
-1 x_3_6_0 +0 x_3_6_1 +0 x_3_6_2 -1 x_3_6_3 -1 x_3_3_0_sb +0 x_3_3_1_sb +0 x_3_3_2_sb +1 x_3_3_3_sb +0 p0_3_3 -1 p1_3_3 >= -3
+0 x_3_6_0 +0 x_3_6_1 +0 x_3_6_2 +1 x_3_6_3 -1 x_3_3_0_sb -1 x_3_3_1_sb -1 x_3_3_2_sb +0 x_3_3_3_sb +0 p0_3_3 -1 p1_3_3 >= -3
+1 x_3_6_0 +1 x_3_6_1 +0 x_3_6_2 +1 x_3_6_3 +0 x_3_3_0_sb +0 x_3_3_1_sb +0 x_3_3_2_sb +0 x_3_3_3_sb -1 p0_3_3 +0 p1_3_3 >= 0
+0 x_3_6_0 +0 x_3_6_1 +1 x_3_6_2 +1 x_3_6_3 +0 x_3_3_0_sb -1 x_3_3_1_sb +1 x_3_3_2_sb +0 x_3_3_3_sb +0 p0_3_3 -1 p1_3_3 >= -1
+0 x_3_6_0 +1 x_3_6_1 +0 x_3_6_2 -1 x_3_6_3 -1 x_3_3_0_sb +0 x_3_3_1_sb -1 x_3_3_2_sb +0 x_3_3_3_sb +0 p0_3_3 -1 p1_3_3 >= -3
+0 x_3_6_0 +1 x_3_6_1 +1 x_3_6_2 +0 x_3_6_3 +0 x_3_3_0_sb +0 x_3_3_1_sb +1 x_3_3_2_sb -1 x_3_3_3_sb +0 p0_3_3 -1 p1_3_3 >= -1
-1 x_3_6_0 +0 x_3_6_1 -1 x_3_6_2 +0 x_3_6_3 -1 x_3_3_0_sb +0 x_3_3_1_sb +1 x_3_3_2_sb +0 x_3_3_3_sb +0 p0_3_3 -1 p1_3_3 >= -3
+0 x_3_6_0 -1 x_3_6_1 -1 x_3_6_2 +0 x_3_6_3 +0 x_3_3_0_sb +1 x_3_3_1_sb +0 x_3_3_2_sb +1 x_3_3_3_sb +0 p0_3_3 -1 p1_3_3 >= -2
+0 x_3_6_0 -1 x_3_6_1 +0 x_3_6_2 +0 x_3_6_3 +1 x_3_3_0_sb +1 x_3_3_1_sb +0 x_3_3_2_sb +1 x_3_3_3_sb +0 p0_3_3 +1 p1_3_3 >= 0
-1 x_3_6_0 -1 x_3_6_1 +0 x_3_6_2 +1 x_3_6_3 +0 x_3_3_0_sb +1 x_3_3_1_sb +0 x_3_3_2_sb +1 x_3_3_3_sb +0 p0_3_3 -1 p1_3_3 >= -2
+0 x_3_6_0 -1 x_3_6_1 +0 x_3_6_2 +0 x_3_6_3 +1 x_3_3_0_sb +0 x_3_3_1_sb +1 x_3_3_2_sb +1 x_3_3_3_sb +0 p0_3_3 -1 p1_3_3 >= -1
-1 x_3_6_0 +0 x_3_6_1 -1 x_3_6_2 +0 x_3_6_3 +1 x_3_3_0_sb +1 x_3_3_1_sb +0 x_3_3_2_sb +0 x_3_3_3_sb +0 p0_3_3 -1 p1_3_3 >= -2
+0 x_3_6_0 +1 x_3_6_1 -1 x_3_6_2 -1 x_3_6_3 +0 x_3_3_0_sb +0 x_3_3_1_sb +0 x_3_3_2_sb +1 x_3_3_3_sb +0 p0_3_3 -1 p1_3_3 >= -2
-1 x_3_6_0 -1 x_3_6_1 +0 x_3_6_2 -1 x_3_6_3 +0 x_3_3_0_sb +1 x_3_3_1_sb +0 x_3_3_2_sb -1 x_3_3_3_sb +0 p0_3_3 -1 p1_3_3 >= -4
-1 x_3_6_0 +1 x_3_6_1 +0 x_3_6_2 +1 x_3_6_3 +0 x_3_3_0_sb +1 x_3_3_1_sb +0 x_3_3_2_sb +1 x_3_3_3_sb +0 p0_3_3 +1 p1_3_3 >= 0
+0 x_3_6_0 +0 x_3_6_1 +0 x_3_6_2 +0 x_3_6_3 +1 x_3_3_0_sb -1 x_3_3_1_sb +0 x_3_3_2_sb -1 x_3_3_3_sb +0 p0_3_3 +1 p1_3_3 >= -1
+1 x_3_6_0 +0 x_3_6_1 +1 x_3_6_2 +0 x_3_6_3 +1 x_3_3_0_sb -1 x_3_3_1_sb +0 x_3_3_2_sb +0 x_3_3_3_sb +0 p0_3_3 -1 p1_3_3 >= -1
+0 x_3_6_0 +1 x_3_6_1 +0 x_3_6_2 +1 x_3_6_3 +0 x_3_3_0_sb -1 x_3_3_1_sb -1 x_3_3_2_sb +0 x_3_3_3_sb +0 p0_3_3 -1 p1_3_3 >= -2
+1 x_3_6_0 -1 x_3_6_1 +0 x_3_6_2 -1 x_3_6_3 +0 x_3_3_0_sb +0 x_3_3_1_sb +1 x_3_3_2_sb +0 x_3_3_3_sb +0 p0_3_3 +0 p1_3_3 >= -1
+1 x_3_6_0 -1 x_3_6_1 -1 x_3_6_2 +0 x_3_6_3 +0 x_3_3_0_sb +0 x_3_3_1_sb +1 x_3_3_2_sb -1 x_3_3_3_sb +0 p0_3_3 -1 p1_3_3 >= -3
+1 x_3_6_0 -1 x_3_6_1 +0 x_3_6_2 -1 x_3_6_3 +0 x_3_3_0_sb +0 x_3_3_1_sb +0 x_3_3_2_sb +0 x_3_3_3_sb +0 p0_3_3 +1 p1_3_3 >= -1
+1 x_3_6_0 +0 x_3_6_1 +0 x_3_6_2 +0 x_3_6_3 -1 x_3_3_0_sb +1 x_3_3_1_sb +0 x_3_3_2_sb -1 x_3_3_3_sb +0 p0_3_3 +1 p1_3_3 >= -1
+1 x_3_6_0 +0 x_3_6_1 +0 x_3_6_2 +0 x_3_6_3 -1 x_3_3_0_sb -1 x_3_3_1_sb +0 x_3_3_2_sb +1 x_3_3_3_sb +0 p0_3_3 +1 p1_3_3 >= -1
-1 x_3_6_0 -1 x_3_6_1 +0 x_3_6_2 +1 x_3_6_3 +1 x_3_3_0_sb +0 x_3_3_1_sb +0 x_3_3_2_sb +0 x_3_3_3_sb +0 p0_3_3 +1 p1_3_3 >= -1
-1 x_3_6_0 +1 x_3_6_1 +0 x_3_6_2 -1 x_3_6_3 +1 x_3_3_0_sb +0 x_3_3_1_sb +0 x_3_3_2_sb +0 x_3_3_3_sb +0 p0_3_3 +1 p1_3_3 >= -1
+0 x_3_6_0 -1 x_3_6_1 +0 x_3_6_2 -1 x_3_6_3 +0 x_3_3_0_sb -1 x_3_3_1_sb +0 x_3_3_2_sb -1 x_3_3_3_sb +0 p0_3_3 +1 p1_3_3 >= -3
+1 x_3_6_0 +1 x_3_6_1 +0 x_3_6_2 +1 x_3_6_3 +0 x_3_3_0_sb +0 x_3_3_1_sb -1 x_3_3_2_sb +0 x_3_3_3_sb +0 p0_3_3 +0 p1_3_3 >= 0
-1 x_3_6_0 +0 x_3_6_1 +1 x_3_6_2 -1 x_3_6_3 +0 x_3_3_0_sb -1 x_3_3_1_sb -1 x_3_3_2_sb +0 x_3_3_3_sb +0 p0_3_3 -1 p1_3_3 >= -4
+1 x_3_6_0 +1 x_3_6_1 +0 x_3_6_2 -1 x_3_6_3 +1 x_3_3_0_sb +1 x_3_3_1_sb +0 x_3_3_2_sb -1 x_3_3_3_sb +0 p0_3_3 -1 p1_3_3 >= -2
+1 x_3_6_0 +0 x_3_6_1 +1 x_3_6_2 +0 x_3_6_3 +0 x_3_3_0_sb +1 x_3_3_1_sb +1 x_3_3_2_sb +1 x_3_3_3_sb +0 p0_3_3 -1 p1_3_3 >= 0
+1 x_3_6_0 +0 x_3_6_1 -1 x_3_6_2 -1 x_3_6_3 -1 x_3_3_0_sb -1 x_3_3_1_sb +0 x_3_3_2_sb -1 x_3_3_3_sb +0 p0_3_3 -1 p1_3_3 >= -5
+0 x_3_6_0 +0 x_3_6_1 +1 x_3_6_2 +1 x_3_6_3 -1 x_3_3_0_sb +0 x_3_3_1_sb -1 x_3_3_2_sb +0 x_3_3_3_sb +0 p0_3_3 -1 p1_3_3 >= -2
+0 x_3_6_0 +0 x_3_6_1 +1 x_3_6_2 +0 x_3_6_3 +1 x_3_3_0_sb -1 x_3_3_1_sb +0 x_3_3_2_sb -1 x_3_3_3_sb +0 p0_3_3 +0 p1_3_3 >= -1
+0 x_3_6_0 -1 x_3_6_1 +0 x_3_6_2 -1 x_3_6_3 +0 x_3_3_0_sb +1 x_3_3_1_sb +0 x_3_3_2_sb +1 x_3_3_3_sb +0 p0_3_3 +1 p1_3_3 >= -1
+0 x_3_6_0 +1 x_3_6_1 +0 x_3_6_2 +1 x_3_6_3 +0 x_3_3_0_sb -1 x_3_3_1_sb +0 x_3_3_2_sb -1 x_3_3_3_sb +0 p0_3_3 +1 p1_3_3 >= -1
+1 x_3_6_0 -1 x_3_6_1 +1 x_3_6_2 -1 x_3_6_3 +1 x_3_3_0_sb +0 x_3_3_1_sb +0 x_3_3_2_sb +0 x_3_3_3_sb +0 p0_3_3 +0 p1_3_3 >= -1
+1 x_3_6_0 +0 x_3_6_1 +0 x_3_6_2 +0 x_3_6_3 +1 x_3_3_0_sb -1 x_3_3_1_sb +1 x_3_3_2_sb -1 x_3_3_3_sb +0 p0_3_3 +0 p1_3_3 >= -1
+0 x_3_6_0 -1 x_3_6_1 +0 x_3_6_2 -1 x_3_6_3 +1 x_3_3_0_sb -1 x_3_3_1_sb -1 x_3_3_2_sb -1 x_3_3_3_sb +0 p0_3_3 +0 p1_3_3 >= -4
+1 x_3_6_0 +0 x_3_6_1 +0 x_3_6_2 +1 x_3_6_3 +0 x_3_3_0_sb -1 x_3_3_1_sb -1 x_3_3_2_sb +1 x_3_3_3_sb +0 p0_3_3 -1 p1_3_3 >= -2
+0 x_3_6_0 +0 x_3_6_1 -1 x_3_6_2 +1 x_3_6_3 -1 x_3_3_0_sb +1 x_3_3_1_sb +0 x_3_3_2_sb -1 x_3_3_3_sb +0 p0_3_3 -1 p1_3_3 >= -3
+0 x_3_6_0 +1 x_3_6_1 +0 x_3_6_2 +1 x_3_6_3 -1 x_3_3_0_sb -1 x_3_3_1_sb +0 x_3_3_2_sb +1 x_3_3_3_sb +0 p0_3_3 -1 p1_3_3 >= -2
-1 x_3_6_0 +1 x_3_6_1 +0 x_3_6_2 -1 x_3_6_3 +0 x_3_3_0_sb +0 x_3_3_1_sb -1 x_3_3_2_sb +1 x_3_3_3_sb +0 p0_3_3 -1 p1_3_3 >= -3
-1 x_3_6_0 +0 x_3_6_1 +0 x_3_6_2 +0 x_3_6_3 -1 x_3_3_0_sb +1 x_3_3_1_sb +0 x_3_3_2_sb -1 x_3_3_3_sb +0 p0_3_3 -1 p1_3_3 >= -3
+0 x_3_6_0 +0 x_3_6_1 -1 x_3_6_2 +0 x_3_6_3 +1 x_3_3_0_sb +1 x_3_3_1_sb +0 x_3_3_2_sb +1 x_3_3_3_sb +0 p0_3_3 +0 p1_3_3 >= 0
+0 x_3_8_0 +0 x_3_8_1 +0 x_3_8_2 +0 x_3_8_3 +0 x_3_4_0_sb +0 x_3_4_1_sb +0 x_3_4_2_sb +0 x_3_4_3_sb -1 p0_3_4 -1 p1_3_4 >= -1
+0 x_3_8_0 +0 x_3_8_1 +0 x_3_8_2 +0 x_3_8_3 +0 x_3_4_0_sb +0 x_3_4_1_sb +0 x_3_4_2_sb -1 x_3_4_3_sb +1 p0_3_4 +1 p1_3_4 >= 0
+0 x_3_8_0 +0 x_3_8_1 +0 x_3_8_2 +0 x_3_8_3 +0 x_3_4_0_sb -1 x_3_4_1_sb +0 x_3_4_2_sb +0 x_3_4_3_sb +1 p0_3_4 +1 p1_3_4 >= 0
+0 x_3_8_0 +0 x_3_8_1 +0 x_3_8_2 +0 x_3_8_3 -1 x_3_4_0_sb +0 x_3_4_1_sb +0 x_3_4_2_sb +0 x_3_4_3_sb +1 p0_3_4 +1 p1_3_4 >= 0
+0 x_3_8_0 +0 x_3_8_1 +0 x_3_8_2 +0 x_3_8_3 +1 x_3_4_0_sb +1 x_3_4_1_sb +1 x_3_4_2_sb +1 x_3_4_3_sb +0 p0_3_4 -1 p1_3_4 >= 0
+0 x_3_8_0 +0 x_3_8_1 +0 x_3_8_2 -1 x_3_8_3 +1 x_3_4_0_sb +1 x_3_4_1_sb +0 x_3_4_2_sb +1 x_3_4_3_sb +0 p0_3_4 +1 p1_3_4 >= 0
-1 x_3_8_0 +0 x_3_8_1 -1 x_3_8_2 +0 x_3_8_3 +1 x_3_4_0_sb +0 x_3_4_1_sb +0 x_3_4_2_sb +1 x_3_4_3_sb +0 p0_3_4 -1 p1_3_4 >= -2
+1 x_3_8_0 +0 x_3_8_1 +1 x_3_8_2 +0 x_3_8_3 +1 x_3_4_0_sb +0 x_3_4_1_sb +1 x_3_4_2_sb +0 x_3_4_3_sb +0 p0_3_4 -1 p1_3_4 >= 0
+0 x_3_8_0 +0 x_3_8_1 +0 x_3_8_2 +1 x_3_8_3 +0 x_3_4_0_sb +1 x_3_4_1_sb -1 x_3_4_2_sb -1 x_3_4_3_sb +0 p0_3_4 -1 p1_3_4 >= -2
-1 x_3_8_0 +0 x_3_8_1 +0 x_3_8_2 -1 x_3_8_3 -1 x_3_4_0_sb +0 x_3_4_1_sb +0 x_3_4_2_sb +1 x_3_4_3_sb +0 p0_3_4 -1 p1_3_4 >= -3
+0 x_3_8_0 +0 x_3_8_1 +0 x_3_8_2 +1 x_3_8_3 -1 x_3_4_0_sb -1 x_3_4_1_sb -1 x_3_4_2_sb +0 x_3_4_3_sb +0 p0_3_4 -1 p1_3_4 >= -3
+1 x_3_8_0 +1 x_3_8_1 +0 x_3_8_2 +1 x_3_8_3 +0 x_3_4_0_sb +0 x_3_4_1_sb +0 x_3_4_2_sb +0 x_3_4_3_sb -1 p0_3_4 +0 p1_3_4 >= 0
+0 x_3_8_0 +0 x_3_8_1 +1 x_3_8_2 +1 x_3_8_3 +0 x_3_4_0_sb -1 x_3_4_1_sb +1 x_3_4_2_sb +0 x_3_4_3_sb +0 p0_3_4 -1 p1_3_4 >= -1
+0 x_3_8_0 +1 x_3_8_1 +0 x_3_8_2 -1 x_3_8_3 -1 x_3_4_0_sb +0 x_3_4_1_sb -1 x_3_4_2_sb +0 x_3_4_3_sb +0 p0_3_4 -1 p1_3_4 >= -3
+0 x_3_8_0 +1 x_3_8_1 +1 x_3_8_2 +0 x_3_8_3 +0 x_3_4_0_sb +0 x_3_4_1_sb +1 x_3_4_2_sb -1 x_3_4_3_sb +0 p0_3_4 -1 p1_3_4 >= -1
-1 x_3_8_0 +0 x_3_8_1 -1 x_3_8_2 +0 x_3_8_3 -1 x_3_4_0_sb +0 x_3_4_1_sb +1 x_3_4_2_sb +0 x_3_4_3_sb +0 p0_3_4 -1 p1_3_4 >= -3
+0 x_3_8_0 -1 x_3_8_1 -1 x_3_8_2 +0 x_3_8_3 +0 x_3_4_0_sb +1 x_3_4_1_sb +0 x_3_4_2_sb +1 x_3_4_3_sb +0 p0_3_4 -1 p1_3_4 >= -2
+0 x_3_8_0 -1 x_3_8_1 +0 x_3_8_2 +0 x_3_8_3 +1 x_3_4_0_sb +1 x_3_4_1_sb +0 x_3_4_2_sb +1 x_3_4_3_sb +0 p0_3_4 +1 p1_3_4 >= 0
-1 x_3_8_0 -1 x_3_8_1 +0 x_3_8_2 +1 x_3_8_3 +0 x_3_4_0_sb +1 x_3_4_1_sb +0 x_3_4_2_sb +1 x_3_4_3_sb +0 p0_3_4 -1 p1_3_4 >= -2
+0 x_3_8_0 -1 x_3_8_1 +0 x_3_8_2 +0 x_3_8_3 +1 x_3_4_0_sb +0 x_3_4_1_sb +1 x_3_4_2_sb +1 x_3_4_3_sb +0 p0_3_4 -1 p1_3_4 >= -1
-1 x_3_8_0 +0 x_3_8_1 -1 x_3_8_2 +0 x_3_8_3 +1 x_3_4_0_sb +1 x_3_4_1_sb +0 x_3_4_2_sb +0 x_3_4_3_sb +0 p0_3_4 -1 p1_3_4 >= -2
+0 x_3_8_0 +1 x_3_8_1 -1 x_3_8_2 -1 x_3_8_3 +0 x_3_4_0_sb +0 x_3_4_1_sb +0 x_3_4_2_sb +1 x_3_4_3_sb +0 p0_3_4 -1 p1_3_4 >= -2
-1 x_3_8_0 -1 x_3_8_1 +0 x_3_8_2 -1 x_3_8_3 +0 x_3_4_0_sb +1 x_3_4_1_sb +0 x_3_4_2_sb -1 x_3_4_3_sb +0 p0_3_4 -1 p1_3_4 >= -4
-1 x_3_8_0 +1 x_3_8_1 +0 x_3_8_2 +1 x_3_8_3 +0 x_3_4_0_sb +1 x_3_4_1_sb +0 x_3_4_2_sb +1 x_3_4_3_sb +0 p0_3_4 +1 p1_3_4 >= 0
+0 x_3_8_0 +0 x_3_8_1 +0 x_3_8_2 +0 x_3_8_3 +1 x_3_4_0_sb -1 x_3_4_1_sb +0 x_3_4_2_sb -1 x_3_4_3_sb +0 p0_3_4 +1 p1_3_4 >= -1
+1 x_3_8_0 +0 x_3_8_1 +1 x_3_8_2 +0 x_3_8_3 +1 x_3_4_0_sb -1 x_3_4_1_sb +0 x_3_4_2_sb +0 x_3_4_3_sb +0 p0_3_4 -1 p1_3_4 >= -1
+0 x_3_8_0 +1 x_3_8_1 +0 x_3_8_2 +1 x_3_8_3 +0 x_3_4_0_sb -1 x_3_4_1_sb -1 x_3_4_2_sb +0 x_3_4_3_sb +0 p0_3_4 -1 p1_3_4 >= -2
+1 x_3_8_0 -1 x_3_8_1 +0 x_3_8_2 -1 x_3_8_3 +0 x_3_4_0_sb +0 x_3_4_1_sb +1 x_3_4_2_sb +0 x_3_4_3_sb +0 p0_3_4 +0 p1_3_4 >= -1
+1 x_3_8_0 -1 x_3_8_1 -1 x_3_8_2 +0 x_3_8_3 +0 x_3_4_0_sb +0 x_3_4_1_sb +1 x_3_4_2_sb -1 x_3_4_3_sb +0 p0_3_4 -1 p1_3_4 >= -3
+1 x_3_8_0 -1 x_3_8_1 +0 x_3_8_2 -1 x_3_8_3 +0 x_3_4_0_sb +0 x_3_4_1_sb +0 x_3_4_2_sb +0 x_3_4_3_sb +0 p0_3_4 +1 p1_3_4 >= -1
+1 x_3_8_0 +0 x_3_8_1 +0 x_3_8_2 +0 x_3_8_3 -1 x_3_4_0_sb +1 x_3_4_1_sb +0 x_3_4_2_sb -1 x_3_4_3_sb +0 p0_3_4 +1 p1_3_4 >= -1
+1 x_3_8_0 +0 x_3_8_1 +0 x_3_8_2 +0 x_3_8_3 -1 x_3_4_0_sb -1 x_3_4_1_sb +0 x_3_4_2_sb +1 x_3_4_3_sb +0 p0_3_4 +1 p1_3_4 >= -1
-1 x_3_8_0 -1 x_3_8_1 +0 x_3_8_2 +1 x_3_8_3 +1 x_3_4_0_sb +0 x_3_4_1_sb +0 x_3_4_2_sb +0 x_3_4_3_sb +0 p0_3_4 +1 p1_3_4 >= -1
-1 x_3_8_0 +1 x_3_8_1 +0 x_3_8_2 -1 x_3_8_3 +1 x_3_4_0_sb +0 x_3_4_1_sb +0 x_3_4_2_sb +0 x_3_4_3_sb +0 p0_3_4 +1 p1_3_4 >= -1
+0 x_3_8_0 -1 x_3_8_1 +0 x_3_8_2 -1 x_3_8_3 +0 x_3_4_0_sb -1 x_3_4_1_sb +0 x_3_4_2_sb -1 x_3_4_3_sb +0 p0_3_4 +1 p1_3_4 >= -3
+1 x_3_8_0 +1 x_3_8_1 +0 x_3_8_2 +1 x_3_8_3 +0 x_3_4_0_sb +0 x_3_4_1_sb -1 x_3_4_2_sb +0 x_3_4_3_sb +0 p0_3_4 +0 p1_3_4 >= 0
-1 x_3_8_0 +0 x_3_8_1 +1 x_3_8_2 -1 x_3_8_3 +0 x_3_4_0_sb -1 x_3_4_1_sb -1 x_3_4_2_sb +0 x_3_4_3_sb +0 p0_3_4 -1 p1_3_4 >= -4
+1 x_3_8_0 +1 x_3_8_1 +0 x_3_8_2 -1 x_3_8_3 +1 x_3_4_0_sb +1 x_3_4_1_sb +0 x_3_4_2_sb -1 x_3_4_3_sb +0 p0_3_4 -1 p1_3_4 >= -2
+1 x_3_8_0 +0 x_3_8_1 +1 x_3_8_2 +0 x_3_8_3 +0 x_3_4_0_sb +1 x_3_4_1_sb +1 x_3_4_2_sb +1 x_3_4_3_sb +0 p0_3_4 -1 p1_3_4 >= 0
+1 x_3_8_0 +0 x_3_8_1 -1 x_3_8_2 -1 x_3_8_3 -1 x_3_4_0_sb -1 x_3_4_1_sb +0 x_3_4_2_sb -1 x_3_4_3_sb +0 p0_3_4 -1 p1_3_4 >= -5
+0 x_3_8_0 +0 x_3_8_1 +1 x_3_8_2 +1 x_3_8_3 -1 x_3_4_0_sb +0 x_3_4_1_sb -1 x_3_4_2_sb +0 x_3_4_3_sb +0 p0_3_4 -1 p1_3_4 >= -2
+0 x_3_8_0 +0 x_3_8_1 +1 x_3_8_2 +0 x_3_8_3 +1 x_3_4_0_sb -1 x_3_4_1_sb +0 x_3_4_2_sb -1 x_3_4_3_sb +0 p0_3_4 +0 p1_3_4 >= -1
+0 x_3_8_0 -1 x_3_8_1 +0 x_3_8_2 -1 x_3_8_3 +0 x_3_4_0_sb +1 x_3_4_1_sb +0 x_3_4_2_sb +1 x_3_4_3_sb +0 p0_3_4 +1 p1_3_4 >= -1
+0 x_3_8_0 +1 x_3_8_1 +0 x_3_8_2 +1 x_3_8_3 +0 x_3_4_0_sb -1 x_3_4_1_sb +0 x_3_4_2_sb -1 x_3_4_3_sb +0 p0_3_4 +1 p1_3_4 >= -1
+1 x_3_8_0 -1 x_3_8_1 +1 x_3_8_2 -1 x_3_8_3 +1 x_3_4_0_sb +0 x_3_4_1_sb +0 x_3_4_2_sb +0 x_3_4_3_sb +0 p0_3_4 +0 p1_3_4 >= -1
+1 x_3_8_0 +0 x_3_8_1 +0 x_3_8_2 +0 x_3_8_3 +1 x_3_4_0_sb -1 x_3_4_1_sb +1 x_3_4_2_sb -1 x_3_4_3_sb +0 p0_3_4 +0 p1_3_4 >= -1
+0 x_3_8_0 -1 x_3_8_1 +0 x_3_8_2 -1 x_3_8_3 +1 x_3_4_0_sb -1 x_3_4_1_sb -1 x_3_4_2_sb -1 x_3_4_3_sb +0 p0_3_4 +0 p1_3_4 >= -4
+1 x_3_8_0 +0 x_3_8_1 +0 x_3_8_2 +1 x_3_8_3 +0 x_3_4_0_sb -1 x_3_4_1_sb -1 x_3_4_2_sb +1 x_3_4_3_sb +0 p0_3_4 -1 p1_3_4 >= -2
+0 x_3_8_0 +0 x_3_8_1 -1 x_3_8_2 +1 x_3_8_3 -1 x_3_4_0_sb +1 x_3_4_1_sb +0 x_3_4_2_sb -1 x_3_4_3_sb +0 p0_3_4 -1 p1_3_4 >= -3
+0 x_3_8_0 +1 x_3_8_1 +0 x_3_8_2 +1 x_3_8_3 -1 x_3_4_0_sb -1 x_3_4_1_sb +0 x_3_4_2_sb +1 x_3_4_3_sb +0 p0_3_4 -1 p1_3_4 >= -2
-1 x_3_8_0 +1 x_3_8_1 +0 x_3_8_2 -1 x_3_8_3 +0 x_3_4_0_sb +0 x_3_4_1_sb -1 x_3_4_2_sb +1 x_3_4_3_sb +0 p0_3_4 -1 p1_3_4 >= -3
-1 x_3_8_0 +0 x_3_8_1 +0 x_3_8_2 +0 x_3_8_3 -1 x_3_4_0_sb +1 x_3_4_1_sb +0 x_3_4_2_sb -1 x_3_4_3_sb +0 p0_3_4 -1 p1_3_4 >= -3
+0 x_3_8_0 +0 x_3_8_1 -1 x_3_8_2 +0 x_3_8_3 +1 x_3_4_0_sb +1 x_3_4_1_sb +0 x_3_4_2_sb +1 x_3_4_3_sb +0 p0_3_4 +0 p1_3_4 >= 0
+0 x_3_10_0 +0 x_3_10_1 +0 x_3_10_2 +0 x_3_10_3 +0 x_3_5_0_sb +0 x_3_5_1_sb +0 x_3_5_2_sb +0 x_3_5_3_sb -1 p0_3_5 -1 p1_3_5 >= -1
+0 x_3_10_0 +0 x_3_10_1 +0 x_3_10_2 +0 x_3_10_3 +0 x_3_5_0_sb +0 x_3_5_1_sb +0 x_3_5_2_sb -1 x_3_5_3_sb +1 p0_3_5 +1 p1_3_5 >= 0
+0 x_3_10_0 +0 x_3_10_1 +0 x_3_10_2 +0 x_3_10_3 +0 x_3_5_0_sb -1 x_3_5_1_sb +0 x_3_5_2_sb +0 x_3_5_3_sb +1 p0_3_5 +1 p1_3_5 >= 0
+0 x_3_10_0 +0 x_3_10_1 +0 x_3_10_2 +0 x_3_10_3 -1 x_3_5_0_sb +0 x_3_5_1_sb +0 x_3_5_2_sb +0 x_3_5_3_sb +1 p0_3_5 +1 p1_3_5 >= 0
+0 x_3_10_0 +0 x_3_10_1 +0 x_3_10_2 +0 x_3_10_3 +1 x_3_5_0_sb +1 x_3_5_1_sb +1 x_3_5_2_sb +1 x_3_5_3_sb +0 p0_3_5 -1 p1_3_5 >= 0
+0 x_3_10_0 +0 x_3_10_1 +0 x_3_10_2 -1 x_3_10_3 +1 x_3_5_0_sb +1 x_3_5_1_sb +0 x_3_5_2_sb +1 x_3_5_3_sb +0 p0_3_5 +1 p1_3_5 >= 0
-1 x_3_10_0 +0 x_3_10_1 -1 x_3_10_2 +0 x_3_10_3 +1 x_3_5_0_sb +0 x_3_5_1_sb +0 x_3_5_2_sb +1 x_3_5_3_sb +0 p0_3_5 -1 p1_3_5 >= -2
+1 x_3_10_0 +0 x_3_10_1 +1 x_3_10_2 +0 x_3_10_3 +1 x_3_5_0_sb +0 x_3_5_1_sb +1 x_3_5_2_sb +0 x_3_5_3_sb +0 p0_3_5 -1 p1_3_5 >= 0
+0 x_3_10_0 +0 x_3_10_1 +0 x_3_10_2 +1 x_3_10_3 +0 x_3_5_0_sb +1 x_3_5_1_sb -1 x_3_5_2_sb -1 x_3_5_3_sb +0 p0_3_5 -1 p1_3_5 >= -2
-1 x_3_10_0 +0 x_3_10_1 +0 x_3_10_2 -1 x_3_10_3 -1 x_3_5_0_sb +0 x_3_5_1_sb +0 x_3_5_2_sb +1 x_3_5_3_sb +0 p0_3_5 -1 p1_3_5 >= -3
+0 x_3_10_0 +0 x_3_10_1 +0 x_3_10_2 +1 x_3_10_3 -1 x_3_5_0_sb -1 x_3_5_1_sb -1 x_3_5_2_sb +0 x_3_5_3_sb +0 p0_3_5 -1 p1_3_5 >= -3
+1 x_3_10_0 +1 x_3_10_1 +0 x_3_10_2 +1 x_3_10_3 +0 x_3_5_0_sb +0 x_3_5_1_sb +0 x_3_5_2_sb +0 x_3_5_3_sb -1 p0_3_5 +0 p1_3_5 >= 0
+0 x_3_10_0 +0 x_3_10_1 +1 x_3_10_2 +1 x_3_10_3 +0 x_3_5_0_sb -1 x_3_5_1_sb +1 x_3_5_2_sb +0 x_3_5_3_sb +0 p0_3_5 -1 p1_3_5 >= -1
+0 x_3_10_0 +1 x_3_10_1 +0 x_3_10_2 -1 x_3_10_3 -1 x_3_5_0_sb +0 x_3_5_1_sb -1 x_3_5_2_sb +0 x_3_5_3_sb +0 p0_3_5 -1 p1_3_5 >= -3
+0 x_3_10_0 +1 x_3_10_1 +1 x_3_10_2 +0 x_3_10_3 +0 x_3_5_0_sb +0 x_3_5_1_sb +1 x_3_5_2_sb -1 x_3_5_3_sb +0 p0_3_5 -1 p1_3_5 >= -1
-1 x_3_10_0 +0 x_3_10_1 -1 x_3_10_2 +0 x_3_10_3 -1 x_3_5_0_sb +0 x_3_5_1_sb +1 x_3_5_2_sb +0 x_3_5_3_sb +0 p0_3_5 -1 p1_3_5 >= -3
+0 x_3_10_0 -1 x_3_10_1 -1 x_3_10_2 +0 x_3_10_3 +0 x_3_5_0_sb +1 x_3_5_1_sb +0 x_3_5_2_sb +1 x_3_5_3_sb +0 p0_3_5 -1 p1_3_5 >= -2
+0 x_3_10_0 -1 x_3_10_1 +0 x_3_10_2 +0 x_3_10_3 +1 x_3_5_0_sb +1 x_3_5_1_sb +0 x_3_5_2_sb +1 x_3_5_3_sb +0 p0_3_5 +1 p1_3_5 >= 0
-1 x_3_10_0 -1 x_3_10_1 +0 x_3_10_2 +1 x_3_10_3 +0 x_3_5_0_sb +1 x_3_5_1_sb +0 x_3_5_2_sb +1 x_3_5_3_sb +0 p0_3_5 -1 p1_3_5 >= -2
+0 x_3_10_0 -1 x_3_10_1 +0 x_3_10_2 +0 x_3_10_3 +1 x_3_5_0_sb +0 x_3_5_1_sb +1 x_3_5_2_sb +1 x_3_5_3_sb +0 p0_3_5 -1 p1_3_5 >= -1
-1 x_3_10_0 +0 x_3_10_1 -1 x_3_10_2 +0 x_3_10_3 +1 x_3_5_0_sb +1 x_3_5_1_sb +0 x_3_5_2_sb +0 x_3_5_3_sb +0 p0_3_5 -1 p1_3_5 >= -2
+0 x_3_10_0 +1 x_3_10_1 -1 x_3_10_2 -1 x_3_10_3 +0 x_3_5_0_sb +0 x_3_5_1_sb +0 x_3_5_2_sb +1 x_3_5_3_sb +0 p0_3_5 -1 p1_3_5 >= -2
-1 x_3_10_0 -1 x_3_10_1 +0 x_3_10_2 -1 x_3_10_3 +0 x_3_5_0_sb +1 x_3_5_1_sb +0 x_3_5_2_sb -1 x_3_5_3_sb +0 p0_3_5 -1 p1_3_5 >= -4
-1 x_3_10_0 +1 x_3_10_1 +0 x_3_10_2 +1 x_3_10_3 +0 x_3_5_0_sb +1 x_3_5_1_sb +0 x_3_5_2_sb +1 x_3_5_3_sb +0 p0_3_5 +1 p1_3_5 >= 0
+0 x_3_10_0 +0 x_3_10_1 +0 x_3_10_2 +0 x_3_10_3 +1 x_3_5_0_sb -1 x_3_5_1_sb +0 x_3_5_2_sb -1 x_3_5_3_sb +0 p0_3_5 +1 p1_3_5 >= -1
+1 x_3_10_0 +0 x_3_10_1 +1 x_3_10_2 +0 x_3_10_3 +1 x_3_5_0_sb -1 x_3_5_1_sb +0 x_3_5_2_sb +0 x_3_5_3_sb +0 p0_3_5 -1 p1_3_5 >= -1
+0 x_3_10_0 +1 x_3_10_1 +0 x_3_10_2 +1 x_3_10_3 +0 x_3_5_0_sb -1 x_3_5_1_sb -1 x_3_5_2_sb +0 x_3_5_3_sb +0 p0_3_5 -1 p1_3_5 >= -2
+1 x_3_10_0 -1 x_3_10_1 +0 x_3_10_2 -1 x_3_10_3 +0 x_3_5_0_sb +0 x_3_5_1_sb +1 x_3_5_2_sb +0 x_3_5_3_sb +0 p0_3_5 +0 p1_3_5 >= -1
+1 x_3_10_0 -1 x_3_10_1 -1 x_3_10_2 +0 x_3_10_3 +0 x_3_5_0_sb +0 x_3_5_1_sb +1 x_3_5_2_sb -1 x_3_5_3_sb +0 p0_3_5 -1 p1_3_5 >= -3
+1 x_3_10_0 -1 x_3_10_1 +0 x_3_10_2 -1 x_3_10_3 +0 x_3_5_0_sb +0 x_3_5_1_sb +0 x_3_5_2_sb +0 x_3_5_3_sb +0 p0_3_5 +1 p1_3_5 >= -1
+1 x_3_10_0 +0 x_3_10_1 +0 x_3_10_2 +0 x_3_10_3 -1 x_3_5_0_sb +1 x_3_5_1_sb +0 x_3_5_2_sb -1 x_3_5_3_sb +0 p0_3_5 +1 p1_3_5 >= -1
+1 x_3_10_0 +0 x_3_10_1 +0 x_3_10_2 +0 x_3_10_3 -1 x_3_5_0_sb -1 x_3_5_1_sb +0 x_3_5_2_sb +1 x_3_5_3_sb +0 p0_3_5 +1 p1_3_5 >= -1
-1 x_3_10_0 -1 x_3_10_1 +0 x_3_10_2 +1 x_3_10_3 +1 x_3_5_0_sb +0 x_3_5_1_sb +0 x_3_5_2_sb +0 x_3_5_3_sb +0 p0_3_5 +1 p1_3_5 >= -1
-1 x_3_10_0 +1 x_3_10_1 +0 x_3_10_2 -1 x_3_10_3 +1 x_3_5_0_sb +0 x_3_5_1_sb +0 x_3_5_2_sb +0 x_3_5_3_sb +0 p0_3_5 +1 p1_3_5 >= -1
+0 x_3_10_0 -1 x_3_10_1 +0 x_3_10_2 -1 x_3_10_3 +0 x_3_5_0_sb -1 x_3_5_1_sb +0 x_3_5_2_sb -1 x_3_5_3_sb +0 p0_3_5 +1 p1_3_5 >= -3
+1 x_3_10_0 +1 x_3_10_1 +0 x_3_10_2 +1 x_3_10_3 +0 x_3_5_0_sb +0 x_3_5_1_sb -1 x_3_5_2_sb +0 x_3_5_3_sb +0 p0_3_5 +0 p1_3_5 >= 0
-1 x_3_10_0 +0 x_3_10_1 +1 x_3_10_2 -1 x_3_10_3 +0 x_3_5_0_sb -1 x_3_5_1_sb -1 x_3_5_2_sb +0 x_3_5_3_sb +0 p0_3_5 -1 p1_3_5 >= -4
+1 x_3_10_0 +1 x_3_10_1 +0 x_3_10_2 -1 x_3_10_3 +1 x_3_5_0_sb +1 x_3_5_1_sb +0 x_3_5_2_sb -1 x_3_5_3_sb +0 p0_3_5 -1 p1_3_5 >= -2
+1 x_3_10_0 +0 x_3_10_1 +1 x_3_10_2 +0 x_3_10_3 +0 x_3_5_0_sb +1 x_3_5_1_sb +1 x_3_5_2_sb +1 x_3_5_3_sb +0 p0_3_5 -1 p1_3_5 >= 0
+1 x_3_10_0 +0 x_3_10_1 -1 x_3_10_2 -1 x_3_10_3 -1 x_3_5_0_sb -1 x_3_5_1_sb +0 x_3_5_2_sb -1 x_3_5_3_sb +0 p0_3_5 -1 p1_3_5 >= -5
+0 x_3_10_0 +0 x_3_10_1 +1 x_3_10_2 +1 x_3_10_3 -1 x_3_5_0_sb +0 x_3_5_1_sb -1 x_3_5_2_sb +0 x_3_5_3_sb +0 p0_3_5 -1 p1_3_5 >= -2
+0 x_3_10_0 +0 x_3_10_1 +1 x_3_10_2 +0 x_3_10_3 +1 x_3_5_0_sb -1 x_3_5_1_sb +0 x_3_5_2_sb -1 x_3_5_3_sb +0 p0_3_5 +0 p1_3_5 >= -1
+0 x_3_10_0 -1 x_3_10_1 +0 x_3_10_2 -1 x_3_10_3 +0 x_3_5_0_sb +1 x_3_5_1_sb +0 x_3_5_2_sb +1 x_3_5_3_sb +0 p0_3_5 +1 p1_3_5 >= -1
+0 x_3_10_0 +1 x_3_10_1 +0 x_3_10_2 +1 x_3_10_3 +0 x_3_5_0_sb -1 x_3_5_1_sb +0 x_3_5_2_sb -1 x_3_5_3_sb +0 p0_3_5 +1 p1_3_5 >= -1
+1 x_3_10_0 -1 x_3_10_1 +1 x_3_10_2 -1 x_3_10_3 +1 x_3_5_0_sb +0 x_3_5_1_sb +0 x_3_5_2_sb +0 x_3_5_3_sb +0 p0_3_5 +0 p1_3_5 >= -1
+1 x_3_10_0 +0 x_3_10_1 +0 x_3_10_2 +0 x_3_10_3 +1 x_3_5_0_sb -1 x_3_5_1_sb +1 x_3_5_2_sb -1 x_3_5_3_sb +0 p0_3_5 +0 p1_3_5 >= -1
+0 x_3_10_0 -1 x_3_10_1 +0 x_3_10_2 -1 x_3_10_3 +1 x_3_5_0_sb -1 x_3_5_1_sb -1 x_3_5_2_sb -1 x_3_5_3_sb +0 p0_3_5 +0 p1_3_5 >= -4
+1 x_3_10_0 +0 x_3_10_1 +0 x_3_10_2 +1 x_3_10_3 +0 x_3_5_0_sb -1 x_3_5_1_sb -1 x_3_5_2_sb +1 x_3_5_3_sb +0 p0_3_5 -1 p1_3_5 >= -2
+0 x_3_10_0 +0 x_3_10_1 -1 x_3_10_2 +1 x_3_10_3 -1 x_3_5_0_sb +1 x_3_5_1_sb +0 x_3_5_2_sb -1 x_3_5_3_sb +0 p0_3_5 -1 p1_3_5 >= -3
+0 x_3_10_0 +1 x_3_10_1 +0 x_3_10_2 +1 x_3_10_3 -1 x_3_5_0_sb -1 x_3_5_1_sb +0 x_3_5_2_sb +1 x_3_5_3_sb +0 p0_3_5 -1 p1_3_5 >= -2
-1 x_3_10_0 +1 x_3_10_1 +0 x_3_10_2 -1 x_3_10_3 +0 x_3_5_0_sb +0 x_3_5_1_sb -1 x_3_5_2_sb +1 x_3_5_3_sb +0 p0_3_5 -1 p1_3_5 >= -3
-1 x_3_10_0 +0 x_3_10_1 +0 x_3_10_2 +0 x_3_10_3 -1 x_3_5_0_sb +1 x_3_5_1_sb +0 x_3_5_2_sb -1 x_3_5_3_sb +0 p0_3_5 -1 p1_3_5 >= -3
+0 x_3_10_0 +0 x_3_10_1 -1 x_3_10_2 +0 x_3_10_3 +1 x_3_5_0_sb +1 x_3_5_1_sb +0 x_3_5_2_sb +1 x_3_5_3_sb +0 p0_3_5 +0 p1_3_5 >= 0
+0 x_3_12_0 +0 x_3_12_1 +0 x_3_12_2 +0 x_3_12_3 +0 x_3_6_0_sb +0 x_3_6_1_sb +0 x_3_6_2_sb +0 x_3_6_3_sb -1 p0_3_6 -1 p1_3_6 >= -1
+0 x_3_12_0 +0 x_3_12_1 +0 x_3_12_2 +0 x_3_12_3 +0 x_3_6_0_sb +0 x_3_6_1_sb +0 x_3_6_2_sb -1 x_3_6_3_sb +1 p0_3_6 +1 p1_3_6 >= 0
+0 x_3_12_0 +0 x_3_12_1 +0 x_3_12_2 +0 x_3_12_3 +0 x_3_6_0_sb -1 x_3_6_1_sb +0 x_3_6_2_sb +0 x_3_6_3_sb +1 p0_3_6 +1 p1_3_6 >= 0
+0 x_3_12_0 +0 x_3_12_1 +0 x_3_12_2 +0 x_3_12_3 -1 x_3_6_0_sb +0 x_3_6_1_sb +0 x_3_6_2_sb +0 x_3_6_3_sb +1 p0_3_6 +1 p1_3_6 >= 0
+0 x_3_12_0 +0 x_3_12_1 +0 x_3_12_2 +0 x_3_12_3 +1 x_3_6_0_sb +1 x_3_6_1_sb +1 x_3_6_2_sb +1 x_3_6_3_sb +0 p0_3_6 -1 p1_3_6 >= 0
+0 x_3_12_0 +0 x_3_12_1 +0 x_3_12_2 -1 x_3_12_3 +1 x_3_6_0_sb +1 x_3_6_1_sb +0 x_3_6_2_sb +1 x_3_6_3_sb +0 p0_3_6 +1 p1_3_6 >= 0
-1 x_3_12_0 +0 x_3_12_1 -1 x_3_12_2 +0 x_3_12_3 +1 x_3_6_0_sb +0 x_3_6_1_sb +0 x_3_6_2_sb +1 x_3_6_3_sb +0 p0_3_6 -1 p1_3_6 >= -2
+1 x_3_12_0 +0 x_3_12_1 +1 x_3_12_2 +0 x_3_12_3 +1 x_3_6_0_sb +0 x_3_6_1_sb +1 x_3_6_2_sb +0 x_3_6_3_sb +0 p0_3_6 -1 p1_3_6 >= 0
+0 x_3_12_0 +0 x_3_12_1 +0 x_3_12_2 +1 x_3_12_3 +0 x_3_6_0_sb +1 x_3_6_1_sb -1 x_3_6_2_sb -1 x_3_6_3_sb +0 p0_3_6 -1 p1_3_6 >= -2
-1 x_3_12_0 +0 x_3_12_1 +0 x_3_12_2 -1 x_3_12_3 -1 x_3_6_0_sb +0 x_3_6_1_sb +0 x_3_6_2_sb +1 x_3_6_3_sb +0 p0_3_6 -1 p1_3_6 >= -3
+0 x_3_12_0 +0 x_3_12_1 +0 x_3_12_2 +1 x_3_12_3 -1 x_3_6_0_sb -1 x_3_6_1_sb -1 x_3_6_2_sb +0 x_3_6_3_sb +0 p0_3_6 -1 p1_3_6 >= -3
+1 x_3_12_0 +1 x_3_12_1 +0 x_3_12_2 +1 x_3_12_3 +0 x_3_6_0_sb +0 x_3_6_1_sb +0 x_3_6_2_sb +0 x_3_6_3_sb -1 p0_3_6 +0 p1_3_6 >= 0
+0 x_3_12_0 +0 x_3_12_1 +1 x_3_12_2 +1 x_3_12_3 +0 x_3_6_0_sb -1 x_3_6_1_sb +1 x_3_6_2_sb +0 x_3_6_3_sb +0 p0_3_6 -1 p1_3_6 >= -1
+0 x_3_12_0 +1 x_3_12_1 +0 x_3_12_2 -1 x_3_12_3 -1 x_3_6_0_sb +0 x_3_6_1_sb -1 x_3_6_2_sb +0 x_3_6_3_sb +0 p0_3_6 -1 p1_3_6 >= -3
+0 x_3_12_0 +1 x_3_12_1 +1 x_3_12_2 +0 x_3_12_3 +0 x_3_6_0_sb +0 x_3_6_1_sb +1 x_3_6_2_sb -1 x_3_6_3_sb +0 p0_3_6 -1 p1_3_6 >= -1
-1 x_3_12_0 +0 x_3_12_1 -1 x_3_12_2 +0 x_3_12_3 -1 x_3_6_0_sb +0 x_3_6_1_sb +1 x_3_6_2_sb +0 x_3_6_3_sb +0 p0_3_6 -1 p1_3_6 >= -3
+0 x_3_12_0 -1 x_3_12_1 -1 x_3_12_2 +0 x_3_12_3 +0 x_3_6_0_sb +1 x_3_6_1_sb +0 x_3_6_2_sb +1 x_3_6_3_sb +0 p0_3_6 -1 p1_3_6 >= -2
+0 x_3_12_0 -1 x_3_12_1 +0 x_3_12_2 +0 x_3_12_3 +1 x_3_6_0_sb +1 x_3_6_1_sb +0 x_3_6_2_sb +1 x_3_6_3_sb +0 p0_3_6 +1 p1_3_6 >= 0
-1 x_3_12_0 -1 x_3_12_1 +0 x_3_12_2 +1 x_3_12_3 +0 x_3_6_0_sb +1 x_3_6_1_sb +0 x_3_6_2_sb +1 x_3_6_3_sb +0 p0_3_6 -1 p1_3_6 >= -2
+0 x_3_12_0 -1 x_3_12_1 +0 x_3_12_2 +0 x_3_12_3 +1 x_3_6_0_sb +0 x_3_6_1_sb +1 x_3_6_2_sb +1 x_3_6_3_sb +0 p0_3_6 -1 p1_3_6 >= -1
-1 x_3_12_0 +0 x_3_12_1 -1 x_3_12_2 +0 x_3_12_3 +1 x_3_6_0_sb +1 x_3_6_1_sb +0 x_3_6_2_sb +0 x_3_6_3_sb +0 p0_3_6 -1 p1_3_6 >= -2
+0 x_3_12_0 +1 x_3_12_1 -1 x_3_12_2 -1 x_3_12_3 +0 x_3_6_0_sb +0 x_3_6_1_sb +0 x_3_6_2_sb +1 x_3_6_3_sb +0 p0_3_6 -1 p1_3_6 >= -2
-1 x_3_12_0 -1 x_3_12_1 +0 x_3_12_2 -1 x_3_12_3 +0 x_3_6_0_sb +1 x_3_6_1_sb +0 x_3_6_2_sb -1 x_3_6_3_sb +0 p0_3_6 -1 p1_3_6 >= -4
-1 x_3_12_0 +1 x_3_12_1 +0 x_3_12_2 +1 x_3_12_3 +0 x_3_6_0_sb +1 x_3_6_1_sb +0 x_3_6_2_sb +1 x_3_6_3_sb +0 p0_3_6 +1 p1_3_6 >= 0
+0 x_3_12_0 +0 x_3_12_1 +0 x_3_12_2 +0 x_3_12_3 +1 x_3_6_0_sb -1 x_3_6_1_sb +0 x_3_6_2_sb -1 x_3_6_3_sb +0 p0_3_6 +1 p1_3_6 >= -1
+1 x_3_12_0 +0 x_3_12_1 +1 x_3_12_2 +0 x_3_12_3 +1 x_3_6_0_sb -1 x_3_6_1_sb +0 x_3_6_2_sb +0 x_3_6_3_sb +0 p0_3_6 -1 p1_3_6 >= -1
+0 x_3_12_0 +1 x_3_12_1 +0 x_3_12_2 +1 x_3_12_3 +0 x_3_6_0_sb -1 x_3_6_1_sb -1 x_3_6_2_sb +0 x_3_6_3_sb +0 p0_3_6 -1 p1_3_6 >= -2
+1 x_3_12_0 -1 x_3_12_1 +0 x_3_12_2 -1 x_3_12_3 +0 x_3_6_0_sb +0 x_3_6_1_sb +1 x_3_6_2_sb +0 x_3_6_3_sb +0 p0_3_6 +0 p1_3_6 >= -1
+1 x_3_12_0 -1 x_3_12_1 -1 x_3_12_2 +0 x_3_12_3 +0 x_3_6_0_sb +0 x_3_6_1_sb +1 x_3_6_2_sb -1 x_3_6_3_sb +0 p0_3_6 -1 p1_3_6 >= -3
+1 x_3_12_0 -1 x_3_12_1 +0 x_3_12_2 -1 x_3_12_3 +0 x_3_6_0_sb +0 x_3_6_1_sb +0 x_3_6_2_sb +0 x_3_6_3_sb +0 p0_3_6 +1 p1_3_6 >= -1
+1 x_3_12_0 +0 x_3_12_1 +0 x_3_12_2 +0 x_3_12_3 -1 x_3_6_0_sb +1 x_3_6_1_sb +0 x_3_6_2_sb -1 x_3_6_3_sb +0 p0_3_6 +1 p1_3_6 >= -1
+1 x_3_12_0 +0 x_3_12_1 +0 x_3_12_2 +0 x_3_12_3 -1 x_3_6_0_sb -1 x_3_6_1_sb +0 x_3_6_2_sb +1 x_3_6_3_sb +0 p0_3_6 +1 p1_3_6 >= -1
-1 x_3_12_0 -1 x_3_12_1 +0 x_3_12_2 +1 x_3_12_3 +1 x_3_6_0_sb +0 x_3_6_1_sb +0 x_3_6_2_sb +0 x_3_6_3_sb +0 p0_3_6 +1 p1_3_6 >= -1
-1 x_3_12_0 +1 x_3_12_1 +0 x_3_12_2 -1 x_3_12_3 +1 x_3_6_0_sb +0 x_3_6_1_sb +0 x_3_6_2_sb +0 x_3_6_3_sb +0 p0_3_6 +1 p1_3_6 >= -1
+0 x_3_12_0 -1 x_3_12_1 +0 x_3_12_2 -1 x_3_12_3 +0 x_3_6_0_sb -1 x_3_6_1_sb +0 x_3_6_2_sb -1 x_3_6_3_sb +0 p0_3_6 +1 p1_3_6 >= -3
+1 x_3_12_0 +1 x_3_12_1 +0 x_3_12_2 +1 x_3_12_3 +0 x_3_6_0_sb +0 x_3_6_1_sb -1 x_3_6_2_sb +0 x_3_6_3_sb +0 p0_3_6 +0 p1_3_6 >= 0
-1 x_3_12_0 +0 x_3_12_1 +1 x_3_12_2 -1 x_3_12_3 +0 x_3_6_0_sb -1 x_3_6_1_sb -1 x_3_6_2_sb +0 x_3_6_3_sb +0 p0_3_6 -1 p1_3_6 >= -4
+1 x_3_12_0 +1 x_3_12_1 +0 x_3_12_2 -1 x_3_12_3 +1 x_3_6_0_sb +1 x_3_6_1_sb +0 x_3_6_2_sb -1 x_3_6_3_sb +0 p0_3_6 -1 p1_3_6 >= -2
+1 x_3_12_0 +0 x_3_12_1 +1 x_3_12_2 +0 x_3_12_3 +0 x_3_6_0_sb +1 x_3_6_1_sb +1 x_3_6_2_sb +1 x_3_6_3_sb +0 p0_3_6 -1 p1_3_6 >= 0
+1 x_3_12_0 +0 x_3_12_1 -1 x_3_12_2 -1 x_3_12_3 -1 x_3_6_0_sb -1 x_3_6_1_sb +0 x_3_6_2_sb -1 x_3_6_3_sb +0 p0_3_6 -1 p1_3_6 >= -5
+0 x_3_12_0 +0 x_3_12_1 +1 x_3_12_2 +1 x_3_12_3 -1 x_3_6_0_sb +0 x_3_6_1_sb -1 x_3_6_2_sb +0 x_3_6_3_sb +0 p0_3_6 -1 p1_3_6 >= -2
+0 x_3_12_0 +0 x_3_12_1 +1 x_3_12_2 +0 x_3_12_3 +1 x_3_6_0_sb -1 x_3_6_1_sb +0 x_3_6_2_sb -1 x_3_6_3_sb +0 p0_3_6 +0 p1_3_6 >= -1
+0 x_3_12_0 -1 x_3_12_1 +0 x_3_12_2 -1 x_3_12_3 +0 x_3_6_0_sb +1 x_3_6_1_sb +0 x_3_6_2_sb +1 x_3_6_3_sb +0 p0_3_6 +1 p1_3_6 >= -1
+0 x_3_12_0 +1 x_3_12_1 +0 x_3_12_2 +1 x_3_12_3 +0 x_3_6_0_sb -1 x_3_6_1_sb +0 x_3_6_2_sb -1 x_3_6_3_sb +0 p0_3_6 +1 p1_3_6 >= -1
+1 x_3_12_0 -1 x_3_12_1 +1 x_3_12_2 -1 x_3_12_3 +1 x_3_6_0_sb +0 x_3_6_1_sb +0 x_3_6_2_sb +0 x_3_6_3_sb +0 p0_3_6 +0 p1_3_6 >= -1
+1 x_3_12_0 +0 x_3_12_1 +0 x_3_12_2 +0 x_3_12_3 +1 x_3_6_0_sb -1 x_3_6_1_sb +1 x_3_6_2_sb -1 x_3_6_3_sb +0 p0_3_6 +0 p1_3_6 >= -1
+0 x_3_12_0 -1 x_3_12_1 +0 x_3_12_2 -1 x_3_12_3 +1 x_3_6_0_sb -1 x_3_6_1_sb -1 x_3_6_2_sb -1 x_3_6_3_sb +0 p0_3_6 +0 p1_3_6 >= -4
+1 x_3_12_0 +0 x_3_12_1 +0 x_3_12_2 +1 x_3_12_3 +0 x_3_6_0_sb -1 x_3_6_1_sb -1 x_3_6_2_sb +1 x_3_6_3_sb +0 p0_3_6 -1 p1_3_6 >= -2
+0 x_3_12_0 +0 x_3_12_1 -1 x_3_12_2 +1 x_3_12_3 -1 x_3_6_0_sb +1 x_3_6_1_sb +0 x_3_6_2_sb -1 x_3_6_3_sb +0 p0_3_6 -1 p1_3_6 >= -3
+0 x_3_12_0 +1 x_3_12_1 +0 x_3_12_2 +1 x_3_12_3 -1 x_3_6_0_sb -1 x_3_6_1_sb +0 x_3_6_2_sb +1 x_3_6_3_sb +0 p0_3_6 -1 p1_3_6 >= -2
-1 x_3_12_0 +1 x_3_12_1 +0 x_3_12_2 -1 x_3_12_3 +0 x_3_6_0_sb +0 x_3_6_1_sb -1 x_3_6_2_sb +1 x_3_6_3_sb +0 p0_3_6 -1 p1_3_6 >= -3
-1 x_3_12_0 +0 x_3_12_1 +0 x_3_12_2 +0 x_3_12_3 -1 x_3_6_0_sb +1 x_3_6_1_sb +0 x_3_6_2_sb -1 x_3_6_3_sb +0 p0_3_6 -1 p1_3_6 >= -3
+0 x_3_12_0 +0 x_3_12_1 -1 x_3_12_2 +0 x_3_12_3 +1 x_3_6_0_sb +1 x_3_6_1_sb +0 x_3_6_2_sb +1 x_3_6_3_sb +0 p0_3_6 +0 p1_3_6 >= 0
+0 x_3_14_0 +0 x_3_14_1 +0 x_3_14_2 +0 x_3_14_3 +0 x_3_7_0_sb +0 x_3_7_1_sb +0 x_3_7_2_sb +0 x_3_7_3_sb -1 p0_3_7 -1 p1_3_7 >= -1
+0 x_3_14_0 +0 x_3_14_1 +0 x_3_14_2 +0 x_3_14_3 +0 x_3_7_0_sb +0 x_3_7_1_sb +0 x_3_7_2_sb -1 x_3_7_3_sb +1 p0_3_7 +1 p1_3_7 >= 0
+0 x_3_14_0 +0 x_3_14_1 +0 x_3_14_2 +0 x_3_14_3 +0 x_3_7_0_sb -1 x_3_7_1_sb +0 x_3_7_2_sb +0 x_3_7_3_sb +1 p0_3_7 +1 p1_3_7 >= 0
+0 x_3_14_0 +0 x_3_14_1 +0 x_3_14_2 +0 x_3_14_3 -1 x_3_7_0_sb +0 x_3_7_1_sb +0 x_3_7_2_sb +0 x_3_7_3_sb +1 p0_3_7 +1 p1_3_7 >= 0
+0 x_3_14_0 +0 x_3_14_1 +0 x_3_14_2 +0 x_3_14_3 +1 x_3_7_0_sb +1 x_3_7_1_sb +1 x_3_7_2_sb +1 x_3_7_3_sb +0 p0_3_7 -1 p1_3_7 >= 0
+0 x_3_14_0 +0 x_3_14_1 +0 x_3_14_2 -1 x_3_14_3 +1 x_3_7_0_sb +1 x_3_7_1_sb +0 x_3_7_2_sb +1 x_3_7_3_sb +0 p0_3_7 +1 p1_3_7 >= 0
-1 x_3_14_0 +0 x_3_14_1 -1 x_3_14_2 +0 x_3_14_3 +1 x_3_7_0_sb +0 x_3_7_1_sb +0 x_3_7_2_sb +1 x_3_7_3_sb +0 p0_3_7 -1 p1_3_7 >= -2
+1 x_3_14_0 +0 x_3_14_1 +1 x_3_14_2 +0 x_3_14_3 +1 x_3_7_0_sb +0 x_3_7_1_sb +1 x_3_7_2_sb +0 x_3_7_3_sb +0 p0_3_7 -1 p1_3_7 >= 0
+0 x_3_14_0 +0 x_3_14_1 +0 x_3_14_2 +1 x_3_14_3 +0 x_3_7_0_sb +1 x_3_7_1_sb -1 x_3_7_2_sb -1 x_3_7_3_sb +0 p0_3_7 -1 p1_3_7 >= -2
-1 x_3_14_0 +0 x_3_14_1 +0 x_3_14_2 -1 x_3_14_3 -1 x_3_7_0_sb +0 x_3_7_1_sb +0 x_3_7_2_sb +1 x_3_7_3_sb +0 p0_3_7 -1 p1_3_7 >= -3
+0 x_3_14_0 +0 x_3_14_1 +0 x_3_14_2 +1 x_3_14_3 -1 x_3_7_0_sb -1 x_3_7_1_sb -1 x_3_7_2_sb +0 x_3_7_3_sb +0 p0_3_7 -1 p1_3_7 >= -3
+1 x_3_14_0 +1 x_3_14_1 +0 x_3_14_2 +1 x_3_14_3 +0 x_3_7_0_sb +0 x_3_7_1_sb +0 x_3_7_2_sb +0 x_3_7_3_sb -1 p0_3_7 +0 p1_3_7 >= 0
+0 x_3_14_0 +0 x_3_14_1 +1 x_3_14_2 +1 x_3_14_3 +0 x_3_7_0_sb -1 x_3_7_1_sb +1 x_3_7_2_sb +0 x_3_7_3_sb +0 p0_3_7 -1 p1_3_7 >= -1
+0 x_3_14_0 +1 x_3_14_1 +0 x_3_14_2 -1 x_3_14_3 -1 x_3_7_0_sb +0 x_3_7_1_sb -1 x_3_7_2_sb +0 x_3_7_3_sb +0 p0_3_7 -1 p1_3_7 >= -3
+0 x_3_14_0 +1 x_3_14_1 +1 x_3_14_2 +0 x_3_14_3 +0 x_3_7_0_sb +0 x_3_7_1_sb +1 x_3_7_2_sb -1 x_3_7_3_sb +0 p0_3_7 -1 p1_3_7 >= -1
-1 x_3_14_0 +0 x_3_14_1 -1 x_3_14_2 +0 x_3_14_3 -1 x_3_7_0_sb +0 x_3_7_1_sb +1 x_3_7_2_sb +0 x_3_7_3_sb +0 p0_3_7 -1 p1_3_7 >= -3
+0 x_3_14_0 -1 x_3_14_1 -1 x_3_14_2 +0 x_3_14_3 +0 x_3_7_0_sb +1 x_3_7_1_sb +0 x_3_7_2_sb +1 x_3_7_3_sb +0 p0_3_7 -1 p1_3_7 >= -2
+0 x_3_14_0 -1 x_3_14_1 +0 x_3_14_2 +0 x_3_14_3 +1 x_3_7_0_sb +1 x_3_7_1_sb +0 x_3_7_2_sb +1 x_3_7_3_sb +0 p0_3_7 +1 p1_3_7 >= 0
-1 x_3_14_0 -1 x_3_14_1 +0 x_3_14_2 +1 x_3_14_3 +0 x_3_7_0_sb +1 x_3_7_1_sb +0 x_3_7_2_sb +1 x_3_7_3_sb +0 p0_3_7 -1 p1_3_7 >= -2
+0 x_3_14_0 -1 x_3_14_1 +0 x_3_14_2 +0 x_3_14_3 +1 x_3_7_0_sb +0 x_3_7_1_sb +1 x_3_7_2_sb +1 x_3_7_3_sb +0 p0_3_7 -1 p1_3_7 >= -1
-1 x_3_14_0 +0 x_3_14_1 -1 x_3_14_2 +0 x_3_14_3 +1 x_3_7_0_sb +1 x_3_7_1_sb +0 x_3_7_2_sb +0 x_3_7_3_sb +0 p0_3_7 -1 p1_3_7 >= -2
+0 x_3_14_0 +1 x_3_14_1 -1 x_3_14_2 -1 x_3_14_3 +0 x_3_7_0_sb +0 x_3_7_1_sb +0 x_3_7_2_sb +1 x_3_7_3_sb +0 p0_3_7 -1 p1_3_7 >= -2
-1 x_3_14_0 -1 x_3_14_1 +0 x_3_14_2 -1 x_3_14_3 +0 x_3_7_0_sb +1 x_3_7_1_sb +0 x_3_7_2_sb -1 x_3_7_3_sb +0 p0_3_7 -1 p1_3_7 >= -4
-1 x_3_14_0 +1 x_3_14_1 +0 x_3_14_2 +1 x_3_14_3 +0 x_3_7_0_sb +1 x_3_7_1_sb +0 x_3_7_2_sb +1 x_3_7_3_sb +0 p0_3_7 +1 p1_3_7 >= 0
+0 x_3_14_0 +0 x_3_14_1 +0 x_3_14_2 +0 x_3_14_3 +1 x_3_7_0_sb -1 x_3_7_1_sb +0 x_3_7_2_sb -1 x_3_7_3_sb +0 p0_3_7 +1 p1_3_7 >= -1
+1 x_3_14_0 +0 x_3_14_1 +1 x_3_14_2 +0 x_3_14_3 +1 x_3_7_0_sb -1 x_3_7_1_sb +0 x_3_7_2_sb +0 x_3_7_3_sb +0 p0_3_7 -1 p1_3_7 >= -1
+0 x_3_14_0 +1 x_3_14_1 +0 x_3_14_2 +1 x_3_14_3 +0 x_3_7_0_sb -1 x_3_7_1_sb -1 x_3_7_2_sb +0 x_3_7_3_sb +0 p0_3_7 -1 p1_3_7 >= -2
+1 x_3_14_0 -1 x_3_14_1 +0 x_3_14_2 -1 x_3_14_3 +0 x_3_7_0_sb +0 x_3_7_1_sb +1 x_3_7_2_sb +0 x_3_7_3_sb +0 p0_3_7 +0 p1_3_7 >= -1
+1 x_3_14_0 -1 x_3_14_1 -1 x_3_14_2 +0 x_3_14_3 +0 x_3_7_0_sb +0 x_3_7_1_sb +1 x_3_7_2_sb -1 x_3_7_3_sb +0 p0_3_7 -1 p1_3_7 >= -3
+1 x_3_14_0 -1 x_3_14_1 +0 x_3_14_2 -1 x_3_14_3 +0 x_3_7_0_sb +0 x_3_7_1_sb +0 x_3_7_2_sb +0 x_3_7_3_sb +0 p0_3_7 +1 p1_3_7 >= -1
+1 x_3_14_0 +0 x_3_14_1 +0 x_3_14_2 +0 x_3_14_3 -1 x_3_7_0_sb +1 x_3_7_1_sb +0 x_3_7_2_sb -1 x_3_7_3_sb +0 p0_3_7 +1 p1_3_7 >= -1
+1 x_3_14_0 +0 x_3_14_1 +0 x_3_14_2 +0 x_3_14_3 -1 x_3_7_0_sb -1 x_3_7_1_sb +0 x_3_7_2_sb +1 x_3_7_3_sb +0 p0_3_7 +1 p1_3_7 >= -1
-1 x_3_14_0 -1 x_3_14_1 +0 x_3_14_2 +1 x_3_14_3 +1 x_3_7_0_sb +0 x_3_7_1_sb +0 x_3_7_2_sb +0 x_3_7_3_sb +0 p0_3_7 +1 p1_3_7 >= -1
-1 x_3_14_0 +1 x_3_14_1 +0 x_3_14_2 -1 x_3_14_3 +1 x_3_7_0_sb +0 x_3_7_1_sb +0 x_3_7_2_sb +0 x_3_7_3_sb +0 p0_3_7 +1 p1_3_7 >= -1
+0 x_3_14_0 -1 x_3_14_1 +0 x_3_14_2 -1 x_3_14_3 +0 x_3_7_0_sb -1 x_3_7_1_sb +0 x_3_7_2_sb -1 x_3_7_3_sb +0 p0_3_7 +1 p1_3_7 >= -3
+1 x_3_14_0 +1 x_3_14_1 +0 x_3_14_2 +1 x_3_14_3 +0 x_3_7_0_sb +0 x_3_7_1_sb -1 x_3_7_2_sb +0 x_3_7_3_sb +0 p0_3_7 +0 p1_3_7 >= 0
-1 x_3_14_0 +0 x_3_14_1 +1 x_3_14_2 -1 x_3_14_3 +0 x_3_7_0_sb -1 x_3_7_1_sb -1 x_3_7_2_sb +0 x_3_7_3_sb +0 p0_3_7 -1 p1_3_7 >= -4
+1 x_3_14_0 +1 x_3_14_1 +0 x_3_14_2 -1 x_3_14_3 +1 x_3_7_0_sb +1 x_3_7_1_sb +0 x_3_7_2_sb -1 x_3_7_3_sb +0 p0_3_7 -1 p1_3_7 >= -2
+1 x_3_14_0 +0 x_3_14_1 +1 x_3_14_2 +0 x_3_14_3 +0 x_3_7_0_sb +1 x_3_7_1_sb +1 x_3_7_2_sb +1 x_3_7_3_sb +0 p0_3_7 -1 p1_3_7 >= 0
+1 x_3_14_0 +0 x_3_14_1 -1 x_3_14_2 -1 x_3_14_3 -1 x_3_7_0_sb -1 x_3_7_1_sb +0 x_3_7_2_sb -1 x_3_7_3_sb +0 p0_3_7 -1 p1_3_7 >= -5
+0 x_3_14_0 +0 x_3_14_1 +1 x_3_14_2 +1 x_3_14_3 -1 x_3_7_0_sb +0 x_3_7_1_sb -1 x_3_7_2_sb +0 x_3_7_3_sb +0 p0_3_7 -1 p1_3_7 >= -2
+0 x_3_14_0 +0 x_3_14_1 +1 x_3_14_2 +0 x_3_14_3 +1 x_3_7_0_sb -1 x_3_7_1_sb +0 x_3_7_2_sb -1 x_3_7_3_sb +0 p0_3_7 +0 p1_3_7 >= -1
+0 x_3_14_0 -1 x_3_14_1 +0 x_3_14_2 -1 x_3_14_3 +0 x_3_7_0_sb +1 x_3_7_1_sb +0 x_3_7_2_sb +1 x_3_7_3_sb +0 p0_3_7 +1 p1_3_7 >= -1
+0 x_3_14_0 +1 x_3_14_1 +0 x_3_14_2 +1 x_3_14_3 +0 x_3_7_0_sb -1 x_3_7_1_sb +0 x_3_7_2_sb -1 x_3_7_3_sb +0 p0_3_7 +1 p1_3_7 >= -1
+1 x_3_14_0 -1 x_3_14_1 +1 x_3_14_2 -1 x_3_14_3 +1 x_3_7_0_sb +0 x_3_7_1_sb +0 x_3_7_2_sb +0 x_3_7_3_sb +0 p0_3_7 +0 p1_3_7 >= -1
+1 x_3_14_0 +0 x_3_14_1 +0 x_3_14_2 +0 x_3_14_3 +1 x_3_7_0_sb -1 x_3_7_1_sb +1 x_3_7_2_sb -1 x_3_7_3_sb +0 p0_3_7 +0 p1_3_7 >= -1
+0 x_3_14_0 -1 x_3_14_1 +0 x_3_14_2 -1 x_3_14_3 +1 x_3_7_0_sb -1 x_3_7_1_sb -1 x_3_7_2_sb -1 x_3_7_3_sb +0 p0_3_7 +0 p1_3_7 >= -4
+1 x_3_14_0 +0 x_3_14_1 +0 x_3_14_2 +1 x_3_14_3 +0 x_3_7_0_sb -1 x_3_7_1_sb -1 x_3_7_2_sb +1 x_3_7_3_sb +0 p0_3_7 -1 p1_3_7 >= -2
+0 x_3_14_0 +0 x_3_14_1 -1 x_3_14_2 +1 x_3_14_3 -1 x_3_7_0_sb +1 x_3_7_1_sb +0 x_3_7_2_sb -1 x_3_7_3_sb +0 p0_3_7 -1 p1_3_7 >= -3
+0 x_3_14_0 +1 x_3_14_1 +0 x_3_14_2 +1 x_3_14_3 -1 x_3_7_0_sb -1 x_3_7_1_sb +0 x_3_7_2_sb +1 x_3_7_3_sb +0 p0_3_7 -1 p1_3_7 >= -2
-1 x_3_14_0 +1 x_3_14_1 +0 x_3_14_2 -1 x_3_14_3 +0 x_3_7_0_sb +0 x_3_7_1_sb -1 x_3_7_2_sb +1 x_3_7_3_sb +0 p0_3_7 -1 p1_3_7 >= -3
-1 x_3_14_0 +0 x_3_14_1 +0 x_3_14_2 +0 x_3_14_3 -1 x_3_7_0_sb +1 x_3_7_1_sb +0 x_3_7_2_sb -1 x_3_7_3_sb +0 p0_3_7 -1 p1_3_7 >= -3
+0 x_3_14_0 +0 x_3_14_1 -1 x_3_14_2 +0 x_3_14_3 +1 x_3_7_0_sb +1 x_3_7_1_sb +0 x_3_7_2_sb +1 x_3_7_3_sb +0 p0_3_7 +0 p1_3_7 >= 0
+0 x_3_16_0 +0 x_3_16_1 +0 x_3_16_2 +0 x_3_16_3 +0 x_3_8_0_sb +0 x_3_8_1_sb +0 x_3_8_2_sb +0 x_3_8_3_sb -1 p0_3_8 -1 p1_3_8 >= -1
+0 x_3_16_0 +0 x_3_16_1 +0 x_3_16_2 +0 x_3_16_3 +0 x_3_8_0_sb +0 x_3_8_1_sb +0 x_3_8_2_sb -1 x_3_8_3_sb +1 p0_3_8 +1 p1_3_8 >= 0
+0 x_3_16_0 +0 x_3_16_1 +0 x_3_16_2 +0 x_3_16_3 +0 x_3_8_0_sb -1 x_3_8_1_sb +0 x_3_8_2_sb +0 x_3_8_3_sb +1 p0_3_8 +1 p1_3_8 >= 0
+0 x_3_16_0 +0 x_3_16_1 +0 x_3_16_2 +0 x_3_16_3 -1 x_3_8_0_sb +0 x_3_8_1_sb +0 x_3_8_2_sb +0 x_3_8_3_sb +1 p0_3_8 +1 p1_3_8 >= 0
+0 x_3_16_0 +0 x_3_16_1 +0 x_3_16_2 +0 x_3_16_3 +1 x_3_8_0_sb +1 x_3_8_1_sb +1 x_3_8_2_sb +1 x_3_8_3_sb +0 p0_3_8 -1 p1_3_8 >= 0
+0 x_3_16_0 +0 x_3_16_1 +0 x_3_16_2 -1 x_3_16_3 +1 x_3_8_0_sb +1 x_3_8_1_sb +0 x_3_8_2_sb +1 x_3_8_3_sb +0 p0_3_8 +1 p1_3_8 >= 0
-1 x_3_16_0 +0 x_3_16_1 -1 x_3_16_2 +0 x_3_16_3 +1 x_3_8_0_sb +0 x_3_8_1_sb +0 x_3_8_2_sb +1 x_3_8_3_sb +0 p0_3_8 -1 p1_3_8 >= -2
+1 x_3_16_0 +0 x_3_16_1 +1 x_3_16_2 +0 x_3_16_3 +1 x_3_8_0_sb +0 x_3_8_1_sb +1 x_3_8_2_sb +0 x_3_8_3_sb +0 p0_3_8 -1 p1_3_8 >= 0
+0 x_3_16_0 +0 x_3_16_1 +0 x_3_16_2 +1 x_3_16_3 +0 x_3_8_0_sb +1 x_3_8_1_sb -1 x_3_8_2_sb -1 x_3_8_3_sb +0 p0_3_8 -1 p1_3_8 >= -2
-1 x_3_16_0 +0 x_3_16_1 +0 x_3_16_2 -1 x_3_16_3 -1 x_3_8_0_sb +0 x_3_8_1_sb +0 x_3_8_2_sb +1 x_3_8_3_sb +0 p0_3_8 -1 p1_3_8 >= -3
+0 x_3_16_0 +0 x_3_16_1 +0 x_3_16_2 +1 x_3_16_3 -1 x_3_8_0_sb -1 x_3_8_1_sb -1 x_3_8_2_sb +0 x_3_8_3_sb +0 p0_3_8 -1 p1_3_8 >= -3
+1 x_3_16_0 +1 x_3_16_1 +0 x_3_16_2 +1 x_3_16_3 +0 x_3_8_0_sb +0 x_3_8_1_sb +0 x_3_8_2_sb +0 x_3_8_3_sb -1 p0_3_8 +0 p1_3_8 >= 0
+0 x_3_16_0 +0 x_3_16_1 +1 x_3_16_2 +1 x_3_16_3 +0 x_3_8_0_sb -1 x_3_8_1_sb +1 x_3_8_2_sb +0 x_3_8_3_sb +0 p0_3_8 -1 p1_3_8 >= -1
+0 x_3_16_0 +1 x_3_16_1 +0 x_3_16_2 -1 x_3_16_3 -1 x_3_8_0_sb +0 x_3_8_1_sb -1 x_3_8_2_sb +0 x_3_8_3_sb +0 p0_3_8 -1 p1_3_8 >= -3
+0 x_3_16_0 +1 x_3_16_1 +1 x_3_16_2 +0 x_3_16_3 +0 x_3_8_0_sb +0 x_3_8_1_sb +1 x_3_8_2_sb -1 x_3_8_3_sb +0 p0_3_8 -1 p1_3_8 >= -1
-1 x_3_16_0 +0 x_3_16_1 -1 x_3_16_2 +0 x_3_16_3 -1 x_3_8_0_sb +0 x_3_8_1_sb +1 x_3_8_2_sb +0 x_3_8_3_sb +0 p0_3_8 -1 p1_3_8 >= -3
+0 x_3_16_0 -1 x_3_16_1 -1 x_3_16_2 +0 x_3_16_3 +0 x_3_8_0_sb +1 x_3_8_1_sb +0 x_3_8_2_sb +1 x_3_8_3_sb +0 p0_3_8 -1 p1_3_8 >= -2
+0 x_3_16_0 -1 x_3_16_1 +0 x_3_16_2 +0 x_3_16_3 +1 x_3_8_0_sb +1 x_3_8_1_sb +0 x_3_8_2_sb +1 x_3_8_3_sb +0 p0_3_8 +1 p1_3_8 >= 0
-1 x_3_16_0 -1 x_3_16_1 +0 x_3_16_2 +1 x_3_16_3 +0 x_3_8_0_sb +1 x_3_8_1_sb +0 x_3_8_2_sb +1 x_3_8_3_sb +0 p0_3_8 -1 p1_3_8 >= -2
+0 x_3_16_0 -1 x_3_16_1 +0 x_3_16_2 +0 x_3_16_3 +1 x_3_8_0_sb +0 x_3_8_1_sb +1 x_3_8_2_sb +1 x_3_8_3_sb +0 p0_3_8 -1 p1_3_8 >= -1
-1 x_3_16_0 +0 x_3_16_1 -1 x_3_16_2 +0 x_3_16_3 +1 x_3_8_0_sb +1 x_3_8_1_sb +0 x_3_8_2_sb +0 x_3_8_3_sb +0 p0_3_8 -1 p1_3_8 >= -2
+0 x_3_16_0 +1 x_3_16_1 -1 x_3_16_2 -1 x_3_16_3 +0 x_3_8_0_sb +0 x_3_8_1_sb +0 x_3_8_2_sb +1 x_3_8_3_sb +0 p0_3_8 -1 p1_3_8 >= -2
-1 x_3_16_0 -1 x_3_16_1 +0 x_3_16_2 -1 x_3_16_3 +0 x_3_8_0_sb +1 x_3_8_1_sb +0 x_3_8_2_sb -1 x_3_8_3_sb +0 p0_3_8 -1 p1_3_8 >= -4
-1 x_3_16_0 +1 x_3_16_1 +0 x_3_16_2 +1 x_3_16_3 +0 x_3_8_0_sb +1 x_3_8_1_sb +0 x_3_8_2_sb +1 x_3_8_3_sb +0 p0_3_8 +1 p1_3_8 >= 0
+0 x_3_16_0 +0 x_3_16_1 +0 x_3_16_2 +0 x_3_16_3 +1 x_3_8_0_sb -1 x_3_8_1_sb +0 x_3_8_2_sb -1 x_3_8_3_sb +0 p0_3_8 +1 p1_3_8 >= -1
+1 x_3_16_0 +0 x_3_16_1 +1 x_3_16_2 +0 x_3_16_3 +1 x_3_8_0_sb -1 x_3_8_1_sb +0 x_3_8_2_sb +0 x_3_8_3_sb +0 p0_3_8 -1 p1_3_8 >= -1
+0 x_3_16_0 +1 x_3_16_1 +0 x_3_16_2 +1 x_3_16_3 +0 x_3_8_0_sb -1 x_3_8_1_sb -1 x_3_8_2_sb +0 x_3_8_3_sb +0 p0_3_8 -1 p1_3_8 >= -2
+1 x_3_16_0 -1 x_3_16_1 +0 x_3_16_2 -1 x_3_16_3 +0 x_3_8_0_sb +0 x_3_8_1_sb +1 x_3_8_2_sb +0 x_3_8_3_sb +0 p0_3_8 +0 p1_3_8 >= -1
+1 x_3_16_0 -1 x_3_16_1 -1 x_3_16_2 +0 x_3_16_3 +0 x_3_8_0_sb +0 x_3_8_1_sb +1 x_3_8_2_sb -1 x_3_8_3_sb +0 p0_3_8 -1 p1_3_8 >= -3
+1 x_3_16_0 -1 x_3_16_1 +0 x_3_16_2 -1 x_3_16_3 +0 x_3_8_0_sb +0 x_3_8_1_sb +0 x_3_8_2_sb +0 x_3_8_3_sb +0 p0_3_8 +1 p1_3_8 >= -1
+1 x_3_16_0 +0 x_3_16_1 +0 x_3_16_2 +0 x_3_16_3 -1 x_3_8_0_sb +1 x_3_8_1_sb +0 x_3_8_2_sb -1 x_3_8_3_sb +0 p0_3_8 +1 p1_3_8 >= -1
+1 x_3_16_0 +0 x_3_16_1 +0 x_3_16_2 +0 x_3_16_3 -1 x_3_8_0_sb -1 x_3_8_1_sb +0 x_3_8_2_sb +1 x_3_8_3_sb +0 p0_3_8 +1 p1_3_8 >= -1
-1 x_3_16_0 -1 x_3_16_1 +0 x_3_16_2 +1 x_3_16_3 +1 x_3_8_0_sb +0 x_3_8_1_sb +0 x_3_8_2_sb +0 x_3_8_3_sb +0 p0_3_8 +1 p1_3_8 >= -1
-1 x_3_16_0 +1 x_3_16_1 +0 x_3_16_2 -1 x_3_16_3 +1 x_3_8_0_sb +0 x_3_8_1_sb +0 x_3_8_2_sb +0 x_3_8_3_sb +0 p0_3_8 +1 p1_3_8 >= -1
+0 x_3_16_0 -1 x_3_16_1 +0 x_3_16_2 -1 x_3_16_3 +0 x_3_8_0_sb -1 x_3_8_1_sb +0 x_3_8_2_sb -1 x_3_8_3_sb +0 p0_3_8 +1 p1_3_8 >= -3
+1 x_3_16_0 +1 x_3_16_1 +0 x_3_16_2 +1 x_3_16_3 +0 x_3_8_0_sb +0 x_3_8_1_sb -1 x_3_8_2_sb +0 x_3_8_3_sb +0 p0_3_8 +0 p1_3_8 >= 0
-1 x_3_16_0 +0 x_3_16_1 +1 x_3_16_2 -1 x_3_16_3 +0 x_3_8_0_sb -1 x_3_8_1_sb -1 x_3_8_2_sb +0 x_3_8_3_sb +0 p0_3_8 -1 p1_3_8 >= -4
+1 x_3_16_0 +1 x_3_16_1 +0 x_3_16_2 -1 x_3_16_3 +1 x_3_8_0_sb +1 x_3_8_1_sb +0 x_3_8_2_sb -1 x_3_8_3_sb +0 p0_3_8 -1 p1_3_8 >= -2
+1 x_3_16_0 +0 x_3_16_1 +1 x_3_16_2 +0 x_3_16_3 +0 x_3_8_0_sb +1 x_3_8_1_sb +1 x_3_8_2_sb +1 x_3_8_3_sb +0 p0_3_8 -1 p1_3_8 >= 0
+1 x_3_16_0 +0 x_3_16_1 -1 x_3_16_2 -1 x_3_16_3 -1 x_3_8_0_sb -1 x_3_8_1_sb +0 x_3_8_2_sb -1 x_3_8_3_sb +0 p0_3_8 -1 p1_3_8 >= -5
+0 x_3_16_0 +0 x_3_16_1 +1 x_3_16_2 +1 x_3_16_3 -1 x_3_8_0_sb +0 x_3_8_1_sb -1 x_3_8_2_sb +0 x_3_8_3_sb +0 p0_3_8 -1 p1_3_8 >= -2
+0 x_3_16_0 +0 x_3_16_1 +1 x_3_16_2 +0 x_3_16_3 +1 x_3_8_0_sb -1 x_3_8_1_sb +0 x_3_8_2_sb -1 x_3_8_3_sb +0 p0_3_8 +0 p1_3_8 >= -1
+0 x_3_16_0 -1 x_3_16_1 +0 x_3_16_2 -1 x_3_16_3 +0 x_3_8_0_sb +1 x_3_8_1_sb +0 x_3_8_2_sb +1 x_3_8_3_sb +0 p0_3_8 +1 p1_3_8 >= -1
+0 x_3_16_0 +1 x_3_16_1 +0 x_3_16_2 +1 x_3_16_3 +0 x_3_8_0_sb -1 x_3_8_1_sb +0 x_3_8_2_sb -1 x_3_8_3_sb +0 p0_3_8 +1 p1_3_8 >= -1
+1 x_3_16_0 -1 x_3_16_1 +1 x_3_16_2 -1 x_3_16_3 +1 x_3_8_0_sb +0 x_3_8_1_sb +0 x_3_8_2_sb +0 x_3_8_3_sb +0 p0_3_8 +0 p1_3_8 >= -1
+1 x_3_16_0 +0 x_3_16_1 +0 x_3_16_2 +0 x_3_16_3 +1 x_3_8_0_sb -1 x_3_8_1_sb +1 x_3_8_2_sb -1 x_3_8_3_sb +0 p0_3_8 +0 p1_3_8 >= -1
+0 x_3_16_0 -1 x_3_16_1 +0 x_3_16_2 -1 x_3_16_3 +1 x_3_8_0_sb -1 x_3_8_1_sb -1 x_3_8_2_sb -1 x_3_8_3_sb +0 p0_3_8 +0 p1_3_8 >= -4
+1 x_3_16_0 +0 x_3_16_1 +0 x_3_16_2 +1 x_3_16_3 +0 x_3_8_0_sb -1 x_3_8_1_sb -1 x_3_8_2_sb +1 x_3_8_3_sb +0 p0_3_8 -1 p1_3_8 >= -2
+0 x_3_16_0 +0 x_3_16_1 -1 x_3_16_2 +1 x_3_16_3 -1 x_3_8_0_sb +1 x_3_8_1_sb +0 x_3_8_2_sb -1 x_3_8_3_sb +0 p0_3_8 -1 p1_3_8 >= -3
+0 x_3_16_0 +1 x_3_16_1 +0 x_3_16_2 +1 x_3_16_3 -1 x_3_8_0_sb -1 x_3_8_1_sb +0 x_3_8_2_sb +1 x_3_8_3_sb +0 p0_3_8 -1 p1_3_8 >= -2
-1 x_3_16_0 +1 x_3_16_1 +0 x_3_16_2 -1 x_3_16_3 +0 x_3_8_0_sb +0 x_3_8_1_sb -1 x_3_8_2_sb +1 x_3_8_3_sb +0 p0_3_8 -1 p1_3_8 >= -3
-1 x_3_16_0 +0 x_3_16_1 +0 x_3_16_2 +0 x_3_16_3 -1 x_3_8_0_sb +1 x_3_8_1_sb +0 x_3_8_2_sb -1 x_3_8_3_sb +0 p0_3_8 -1 p1_3_8 >= -3
+0 x_3_16_0 +0 x_3_16_1 -1 x_3_16_2 +0 x_3_16_3 +1 x_3_8_0_sb +1 x_3_8_1_sb +0 x_3_8_2_sb +1 x_3_8_3_sb +0 p0_3_8 +0 p1_3_8 >= 0
+0 x_3_18_0 +0 x_3_18_1 +0 x_3_18_2 +0 x_3_18_3 +0 x_3_9_0_sb +0 x_3_9_1_sb +0 x_3_9_2_sb +0 x_3_9_3_sb -1 p0_3_9 -1 p1_3_9 >= -1
+0 x_3_18_0 +0 x_3_18_1 +0 x_3_18_2 +0 x_3_18_3 +0 x_3_9_0_sb +0 x_3_9_1_sb +0 x_3_9_2_sb -1 x_3_9_3_sb +1 p0_3_9 +1 p1_3_9 >= 0
+0 x_3_18_0 +0 x_3_18_1 +0 x_3_18_2 +0 x_3_18_3 +0 x_3_9_0_sb -1 x_3_9_1_sb +0 x_3_9_2_sb +0 x_3_9_3_sb +1 p0_3_9 +1 p1_3_9 >= 0
+0 x_3_18_0 +0 x_3_18_1 +0 x_3_18_2 +0 x_3_18_3 -1 x_3_9_0_sb +0 x_3_9_1_sb +0 x_3_9_2_sb +0 x_3_9_3_sb +1 p0_3_9 +1 p1_3_9 >= 0
+0 x_3_18_0 +0 x_3_18_1 +0 x_3_18_2 +0 x_3_18_3 +1 x_3_9_0_sb +1 x_3_9_1_sb +1 x_3_9_2_sb +1 x_3_9_3_sb +0 p0_3_9 -1 p1_3_9 >= 0
+0 x_3_18_0 +0 x_3_18_1 +0 x_3_18_2 -1 x_3_18_3 +1 x_3_9_0_sb +1 x_3_9_1_sb +0 x_3_9_2_sb +1 x_3_9_3_sb +0 p0_3_9 +1 p1_3_9 >= 0
-1 x_3_18_0 +0 x_3_18_1 -1 x_3_18_2 +0 x_3_18_3 +1 x_3_9_0_sb +0 x_3_9_1_sb +0 x_3_9_2_sb +1 x_3_9_3_sb +0 p0_3_9 -1 p1_3_9 >= -2
+1 x_3_18_0 +0 x_3_18_1 +1 x_3_18_2 +0 x_3_18_3 +1 x_3_9_0_sb +0 x_3_9_1_sb +1 x_3_9_2_sb +0 x_3_9_3_sb +0 p0_3_9 -1 p1_3_9 >= 0
+0 x_3_18_0 +0 x_3_18_1 +0 x_3_18_2 +1 x_3_18_3 +0 x_3_9_0_sb +1 x_3_9_1_sb -1 x_3_9_2_sb -1 x_3_9_3_sb +0 p0_3_9 -1 p1_3_9 >= -2
-1 x_3_18_0 +0 x_3_18_1 +0 x_3_18_2 -1 x_3_18_3 -1 x_3_9_0_sb +0 x_3_9_1_sb +0 x_3_9_2_sb +1 x_3_9_3_sb +0 p0_3_9 -1 p1_3_9 >= -3
+0 x_3_18_0 +0 x_3_18_1 +0 x_3_18_2 +1 x_3_18_3 -1 x_3_9_0_sb -1 x_3_9_1_sb -1 x_3_9_2_sb +0 x_3_9_3_sb +0 p0_3_9 -1 p1_3_9 >= -3
+1 x_3_18_0 +1 x_3_18_1 +0 x_3_18_2 +1 x_3_18_3 +0 x_3_9_0_sb +0 x_3_9_1_sb +0 x_3_9_2_sb +0 x_3_9_3_sb -1 p0_3_9 +0 p1_3_9 >= 0
+0 x_3_18_0 +0 x_3_18_1 +1 x_3_18_2 +1 x_3_18_3 +0 x_3_9_0_sb -1 x_3_9_1_sb +1 x_3_9_2_sb +0 x_3_9_3_sb +0 p0_3_9 -1 p1_3_9 >= -1
+0 x_3_18_0 +1 x_3_18_1 +0 x_3_18_2 -1 x_3_18_3 -1 x_3_9_0_sb +0 x_3_9_1_sb -1 x_3_9_2_sb +0 x_3_9_3_sb +0 p0_3_9 -1 p1_3_9 >= -3
+0 x_3_18_0 +1 x_3_18_1 +1 x_3_18_2 +0 x_3_18_3 +0 x_3_9_0_sb +0 x_3_9_1_sb +1 x_3_9_2_sb -1 x_3_9_3_sb +0 p0_3_9 -1 p1_3_9 >= -1
-1 x_3_18_0 +0 x_3_18_1 -1 x_3_18_2 +0 x_3_18_3 -1 x_3_9_0_sb +0 x_3_9_1_sb +1 x_3_9_2_sb +0 x_3_9_3_sb +0 p0_3_9 -1 p1_3_9 >= -3
+0 x_3_18_0 -1 x_3_18_1 -1 x_3_18_2 +0 x_3_18_3 +0 x_3_9_0_sb +1 x_3_9_1_sb +0 x_3_9_2_sb +1 x_3_9_3_sb +0 p0_3_9 -1 p1_3_9 >= -2
+0 x_3_18_0 -1 x_3_18_1 +0 x_3_18_2 +0 x_3_18_3 +1 x_3_9_0_sb +1 x_3_9_1_sb +0 x_3_9_2_sb +1 x_3_9_3_sb +0 p0_3_9 +1 p1_3_9 >= 0
-1 x_3_18_0 -1 x_3_18_1 +0 x_3_18_2 +1 x_3_18_3 +0 x_3_9_0_sb +1 x_3_9_1_sb +0 x_3_9_2_sb +1 x_3_9_3_sb +0 p0_3_9 -1 p1_3_9 >= -2
+0 x_3_18_0 -1 x_3_18_1 +0 x_3_18_2 +0 x_3_18_3 +1 x_3_9_0_sb +0 x_3_9_1_sb +1 x_3_9_2_sb +1 x_3_9_3_sb +0 p0_3_9 -1 p1_3_9 >= -1
-1 x_3_18_0 +0 x_3_18_1 -1 x_3_18_2 +0 x_3_18_3 +1 x_3_9_0_sb +1 x_3_9_1_sb +0 x_3_9_2_sb +0 x_3_9_3_sb +0 p0_3_9 -1 p1_3_9 >= -2
+0 x_3_18_0 +1 x_3_18_1 -1 x_3_18_2 -1 x_3_18_3 +0 x_3_9_0_sb +0 x_3_9_1_sb +0 x_3_9_2_sb +1 x_3_9_3_sb +0 p0_3_9 -1 p1_3_9 >= -2
-1 x_3_18_0 -1 x_3_18_1 +0 x_3_18_2 -1 x_3_18_3 +0 x_3_9_0_sb +1 x_3_9_1_sb +0 x_3_9_2_sb -1 x_3_9_3_sb +0 p0_3_9 -1 p1_3_9 >= -4
-1 x_3_18_0 +1 x_3_18_1 +0 x_3_18_2 +1 x_3_18_3 +0 x_3_9_0_sb +1 x_3_9_1_sb +0 x_3_9_2_sb +1 x_3_9_3_sb +0 p0_3_9 +1 p1_3_9 >= 0
+0 x_3_18_0 +0 x_3_18_1 +0 x_3_18_2 +0 x_3_18_3 +1 x_3_9_0_sb -1 x_3_9_1_sb +0 x_3_9_2_sb -1 x_3_9_3_sb +0 p0_3_9 +1 p1_3_9 >= -1
+1 x_3_18_0 +0 x_3_18_1 +1 x_3_18_2 +0 x_3_18_3 +1 x_3_9_0_sb -1 x_3_9_1_sb +0 x_3_9_2_sb +0 x_3_9_3_sb +0 p0_3_9 -1 p1_3_9 >= -1
+0 x_3_18_0 +1 x_3_18_1 +0 x_3_18_2 +1 x_3_18_3 +0 x_3_9_0_sb -1 x_3_9_1_sb -1 x_3_9_2_sb +0 x_3_9_3_sb +0 p0_3_9 -1 p1_3_9 >= -2
+1 x_3_18_0 -1 x_3_18_1 +0 x_3_18_2 -1 x_3_18_3 +0 x_3_9_0_sb +0 x_3_9_1_sb +1 x_3_9_2_sb +0 x_3_9_3_sb +0 p0_3_9 +0 p1_3_9 >= -1
+1 x_3_18_0 -1 x_3_18_1 -1 x_3_18_2 +0 x_3_18_3 +0 x_3_9_0_sb +0 x_3_9_1_sb +1 x_3_9_2_sb -1 x_3_9_3_sb +0 p0_3_9 -1 p1_3_9 >= -3
+1 x_3_18_0 -1 x_3_18_1 +0 x_3_18_2 -1 x_3_18_3 +0 x_3_9_0_sb +0 x_3_9_1_sb +0 x_3_9_2_sb +0 x_3_9_3_sb +0 p0_3_9 +1 p1_3_9 >= -1
+1 x_3_18_0 +0 x_3_18_1 +0 x_3_18_2 +0 x_3_18_3 -1 x_3_9_0_sb +1 x_3_9_1_sb +0 x_3_9_2_sb -1 x_3_9_3_sb +0 p0_3_9 +1 p1_3_9 >= -1
+1 x_3_18_0 +0 x_3_18_1 +0 x_3_18_2 +0 x_3_18_3 -1 x_3_9_0_sb -1 x_3_9_1_sb +0 x_3_9_2_sb +1 x_3_9_3_sb +0 p0_3_9 +1 p1_3_9 >= -1
-1 x_3_18_0 -1 x_3_18_1 +0 x_3_18_2 +1 x_3_18_3 +1 x_3_9_0_sb +0 x_3_9_1_sb +0 x_3_9_2_sb +0 x_3_9_3_sb +0 p0_3_9 +1 p1_3_9 >= -1
-1 x_3_18_0 +1 x_3_18_1 +0 x_3_18_2 -1 x_3_18_3 +1 x_3_9_0_sb +0 x_3_9_1_sb +0 x_3_9_2_sb +0 x_3_9_3_sb +0 p0_3_9 +1 p1_3_9 >= -1
+0 x_3_18_0 -1 x_3_18_1 +0 x_3_18_2 -1 x_3_18_3 +0 x_3_9_0_sb -1 x_3_9_1_sb +0 x_3_9_2_sb -1 x_3_9_3_sb +0 p0_3_9 +1 p1_3_9 >= -3
+1 x_3_18_0 +1 x_3_18_1 +0 x_3_18_2 +1 x_3_18_3 +0 x_3_9_0_sb +0 x_3_9_1_sb -1 x_3_9_2_sb +0 x_3_9_3_sb +0 p0_3_9 +0 p1_3_9 >= 0
-1 x_3_18_0 +0 x_3_18_1 +1 x_3_18_2 -1 x_3_18_3 +0 x_3_9_0_sb -1 x_3_9_1_sb -1 x_3_9_2_sb +0 x_3_9_3_sb +0 p0_3_9 -1 p1_3_9 >= -4
+1 x_3_18_0 +1 x_3_18_1 +0 x_3_18_2 -1 x_3_18_3 +1 x_3_9_0_sb +1 x_3_9_1_sb +0 x_3_9_2_sb -1 x_3_9_3_sb +0 p0_3_9 -1 p1_3_9 >= -2
+1 x_3_18_0 +0 x_3_18_1 +1 x_3_18_2 +0 x_3_18_3 +0 x_3_9_0_sb +1 x_3_9_1_sb +1 x_3_9_2_sb +1 x_3_9_3_sb +0 p0_3_9 -1 p1_3_9 >= 0
+1 x_3_18_0 +0 x_3_18_1 -1 x_3_18_2 -1 x_3_18_3 -1 x_3_9_0_sb -1 x_3_9_1_sb +0 x_3_9_2_sb -1 x_3_9_3_sb +0 p0_3_9 -1 p1_3_9 >= -5
+0 x_3_18_0 +0 x_3_18_1 +1 x_3_18_2 +1 x_3_18_3 -1 x_3_9_0_sb +0 x_3_9_1_sb -1 x_3_9_2_sb +0 x_3_9_3_sb +0 p0_3_9 -1 p1_3_9 >= -2
+0 x_3_18_0 +0 x_3_18_1 +1 x_3_18_2 +0 x_3_18_3 +1 x_3_9_0_sb -1 x_3_9_1_sb +0 x_3_9_2_sb -1 x_3_9_3_sb +0 p0_3_9 +0 p1_3_9 >= -1
+0 x_3_18_0 -1 x_3_18_1 +0 x_3_18_2 -1 x_3_18_3 +0 x_3_9_0_sb +1 x_3_9_1_sb +0 x_3_9_2_sb +1 x_3_9_3_sb +0 p0_3_9 +1 p1_3_9 >= -1
+0 x_3_18_0 +1 x_3_18_1 +0 x_3_18_2 +1 x_3_18_3 +0 x_3_9_0_sb -1 x_3_9_1_sb +0 x_3_9_2_sb -1 x_3_9_3_sb +0 p0_3_9 +1 p1_3_9 >= -1
+1 x_3_18_0 -1 x_3_18_1 +1 x_3_18_2 -1 x_3_18_3 +1 x_3_9_0_sb +0 x_3_9_1_sb +0 x_3_9_2_sb +0 x_3_9_3_sb +0 p0_3_9 +0 p1_3_9 >= -1
+1 x_3_18_0 +0 x_3_18_1 +0 x_3_18_2 +0 x_3_18_3 +1 x_3_9_0_sb -1 x_3_9_1_sb +1 x_3_9_2_sb -1 x_3_9_3_sb +0 p0_3_9 +0 p1_3_9 >= -1
+0 x_3_18_0 -1 x_3_18_1 +0 x_3_18_2 -1 x_3_18_3 +1 x_3_9_0_sb -1 x_3_9_1_sb -1 x_3_9_2_sb -1 x_3_9_3_sb +0 p0_3_9 +0 p1_3_9 >= -4
+1 x_3_18_0 +0 x_3_18_1 +0 x_3_18_2 +1 x_3_18_3 +0 x_3_9_0_sb -1 x_3_9_1_sb -1 x_3_9_2_sb +1 x_3_9_3_sb +0 p0_3_9 -1 p1_3_9 >= -2
+0 x_3_18_0 +0 x_3_18_1 -1 x_3_18_2 +1 x_3_18_3 -1 x_3_9_0_sb +1 x_3_9_1_sb +0 x_3_9_2_sb -1 x_3_9_3_sb +0 p0_3_9 -1 p1_3_9 >= -3
+0 x_3_18_0 +1 x_3_18_1 +0 x_3_18_2 +1 x_3_18_3 -1 x_3_9_0_sb -1 x_3_9_1_sb +0 x_3_9_2_sb +1 x_3_9_3_sb +0 p0_3_9 -1 p1_3_9 >= -2
-1 x_3_18_0 +1 x_3_18_1 +0 x_3_18_2 -1 x_3_18_3 +0 x_3_9_0_sb +0 x_3_9_1_sb -1 x_3_9_2_sb +1 x_3_9_3_sb +0 p0_3_9 -1 p1_3_9 >= -3
-1 x_3_18_0 +0 x_3_18_1 +0 x_3_18_2 +0 x_3_18_3 -1 x_3_9_0_sb +1 x_3_9_1_sb +0 x_3_9_2_sb -1 x_3_9_3_sb +0 p0_3_9 -1 p1_3_9 >= -3
+0 x_3_18_0 +0 x_3_18_1 -1 x_3_18_2 +0 x_3_18_3 +1 x_3_9_0_sb +1 x_3_9_1_sb +0 x_3_9_2_sb +1 x_3_9_3_sb +0 p0_3_9 +0 p1_3_9 >= 0
+0 x_3_20_0 +0 x_3_20_1 +0 x_3_20_2 +0 x_3_20_3 +0 x_3_10_0_sb +0 x_3_10_1_sb +0 x_3_10_2_sb +0 x_3_10_3_sb -1 p0_3_10 -1 p1_3_10 >= -1
+0 x_3_20_0 +0 x_3_20_1 +0 x_3_20_2 +0 x_3_20_3 +0 x_3_10_0_sb +0 x_3_10_1_sb +0 x_3_10_2_sb -1 x_3_10_3_sb +1 p0_3_10 +1 p1_3_10 >= 0
+0 x_3_20_0 +0 x_3_20_1 +0 x_3_20_2 +0 x_3_20_3 +0 x_3_10_0_sb -1 x_3_10_1_sb +0 x_3_10_2_sb +0 x_3_10_3_sb +1 p0_3_10 +1 p1_3_10 >= 0
+0 x_3_20_0 +0 x_3_20_1 +0 x_3_20_2 +0 x_3_20_3 -1 x_3_10_0_sb +0 x_3_10_1_sb +0 x_3_10_2_sb +0 x_3_10_3_sb +1 p0_3_10 +1 p1_3_10 >= 0
+0 x_3_20_0 +0 x_3_20_1 +0 x_3_20_2 +0 x_3_20_3 +1 x_3_10_0_sb +1 x_3_10_1_sb +1 x_3_10_2_sb +1 x_3_10_3_sb +0 p0_3_10 -1 p1_3_10 >= 0
+0 x_3_20_0 +0 x_3_20_1 +0 x_3_20_2 -1 x_3_20_3 +1 x_3_10_0_sb +1 x_3_10_1_sb +0 x_3_10_2_sb +1 x_3_10_3_sb +0 p0_3_10 +1 p1_3_10 >= 0
-1 x_3_20_0 +0 x_3_20_1 -1 x_3_20_2 +0 x_3_20_3 +1 x_3_10_0_sb +0 x_3_10_1_sb +0 x_3_10_2_sb +1 x_3_10_3_sb +0 p0_3_10 -1 p1_3_10 >= -2
+1 x_3_20_0 +0 x_3_20_1 +1 x_3_20_2 +0 x_3_20_3 +1 x_3_10_0_sb +0 x_3_10_1_sb +1 x_3_10_2_sb +0 x_3_10_3_sb +0 p0_3_10 -1 p1_3_10 >= 0
+0 x_3_20_0 +0 x_3_20_1 +0 x_3_20_2 +1 x_3_20_3 +0 x_3_10_0_sb +1 x_3_10_1_sb -1 x_3_10_2_sb -1 x_3_10_3_sb +0 p0_3_10 -1 p1_3_10 >= -2
-1 x_3_20_0 +0 x_3_20_1 +0 x_3_20_2 -1 x_3_20_3 -1 x_3_10_0_sb +0 x_3_10_1_sb +0 x_3_10_2_sb +1 x_3_10_3_sb +0 p0_3_10 -1 p1_3_10 >= -3
+0 x_3_20_0 +0 x_3_20_1 +0 x_3_20_2 +1 x_3_20_3 -1 x_3_10_0_sb -1 x_3_10_1_sb -1 x_3_10_2_sb +0 x_3_10_3_sb +0 p0_3_10 -1 p1_3_10 >= -3
+1 x_3_20_0 +1 x_3_20_1 +0 x_3_20_2 +1 x_3_20_3 +0 x_3_10_0_sb +0 x_3_10_1_sb +0 x_3_10_2_sb +0 x_3_10_3_sb -1 p0_3_10 +0 p1_3_10 >= 0
+0 x_3_20_0 +0 x_3_20_1 +1 x_3_20_2 +1 x_3_20_3 +0 x_3_10_0_sb -1 x_3_10_1_sb +1 x_3_10_2_sb +0 x_3_10_3_sb +0 p0_3_10 -1 p1_3_10 >= -1
+0 x_3_20_0 +1 x_3_20_1 +0 x_3_20_2 -1 x_3_20_3 -1 x_3_10_0_sb +0 x_3_10_1_sb -1 x_3_10_2_sb +0 x_3_10_3_sb +0 p0_3_10 -1 p1_3_10 >= -3
+0 x_3_20_0 +1 x_3_20_1 +1 x_3_20_2 +0 x_3_20_3 +0 x_3_10_0_sb +0 x_3_10_1_sb +1 x_3_10_2_sb -1 x_3_10_3_sb +0 p0_3_10 -1 p1_3_10 >= -1
-1 x_3_20_0 +0 x_3_20_1 -1 x_3_20_2 +0 x_3_20_3 -1 x_3_10_0_sb +0 x_3_10_1_sb +1 x_3_10_2_sb +0 x_3_10_3_sb +0 p0_3_10 -1 p1_3_10 >= -3
+0 x_3_20_0 -1 x_3_20_1 -1 x_3_20_2 +0 x_3_20_3 +0 x_3_10_0_sb +1 x_3_10_1_sb +0 x_3_10_2_sb +1 x_3_10_3_sb +0 p0_3_10 -1 p1_3_10 >= -2
+0 x_3_20_0 -1 x_3_20_1 +0 x_3_20_2 +0 x_3_20_3 +1 x_3_10_0_sb +1 x_3_10_1_sb +0 x_3_10_2_sb +1 x_3_10_3_sb +0 p0_3_10 +1 p1_3_10 >= 0
-1 x_3_20_0 -1 x_3_20_1 +0 x_3_20_2 +1 x_3_20_3 +0 x_3_10_0_sb +1 x_3_10_1_sb +0 x_3_10_2_sb +1 x_3_10_3_sb +0 p0_3_10 -1 p1_3_10 >= -2
+0 x_3_20_0 -1 x_3_20_1 +0 x_3_20_2 +0 x_3_20_3 +1 x_3_10_0_sb +0 x_3_10_1_sb +1 x_3_10_2_sb +1 x_3_10_3_sb +0 p0_3_10 -1 p1_3_10 >= -1
-1 x_3_20_0 +0 x_3_20_1 -1 x_3_20_2 +0 x_3_20_3 +1 x_3_10_0_sb +1 x_3_10_1_sb +0 x_3_10_2_sb +0 x_3_10_3_sb +0 p0_3_10 -1 p1_3_10 >= -2
+0 x_3_20_0 +1 x_3_20_1 -1 x_3_20_2 -1 x_3_20_3 +0 x_3_10_0_sb +0 x_3_10_1_sb +0 x_3_10_2_sb +1 x_3_10_3_sb +0 p0_3_10 -1 p1_3_10 >= -2
-1 x_3_20_0 -1 x_3_20_1 +0 x_3_20_2 -1 x_3_20_3 +0 x_3_10_0_sb +1 x_3_10_1_sb +0 x_3_10_2_sb -1 x_3_10_3_sb +0 p0_3_10 -1 p1_3_10 >= -4
-1 x_3_20_0 +1 x_3_20_1 +0 x_3_20_2 +1 x_3_20_3 +0 x_3_10_0_sb +1 x_3_10_1_sb +0 x_3_10_2_sb +1 x_3_10_3_sb +0 p0_3_10 +1 p1_3_10 >= 0
+0 x_3_20_0 +0 x_3_20_1 +0 x_3_20_2 +0 x_3_20_3 +1 x_3_10_0_sb -1 x_3_10_1_sb +0 x_3_10_2_sb -1 x_3_10_3_sb +0 p0_3_10 +1 p1_3_10 >= -1
+1 x_3_20_0 +0 x_3_20_1 +1 x_3_20_2 +0 x_3_20_3 +1 x_3_10_0_sb -1 x_3_10_1_sb +0 x_3_10_2_sb +0 x_3_10_3_sb +0 p0_3_10 -1 p1_3_10 >= -1
+0 x_3_20_0 +1 x_3_20_1 +0 x_3_20_2 +1 x_3_20_3 +0 x_3_10_0_sb -1 x_3_10_1_sb -1 x_3_10_2_sb +0 x_3_10_3_sb +0 p0_3_10 -1 p1_3_10 >= -2
+1 x_3_20_0 -1 x_3_20_1 +0 x_3_20_2 -1 x_3_20_3 +0 x_3_10_0_sb +0 x_3_10_1_sb +1 x_3_10_2_sb +0 x_3_10_3_sb +0 p0_3_10 +0 p1_3_10 >= -1
+1 x_3_20_0 -1 x_3_20_1 -1 x_3_20_2 +0 x_3_20_3 +0 x_3_10_0_sb +0 x_3_10_1_sb +1 x_3_10_2_sb -1 x_3_10_3_sb +0 p0_3_10 -1 p1_3_10 >= -3
+1 x_3_20_0 -1 x_3_20_1 +0 x_3_20_2 -1 x_3_20_3 +0 x_3_10_0_sb +0 x_3_10_1_sb +0 x_3_10_2_sb +0 x_3_10_3_sb +0 p0_3_10 +1 p1_3_10 >= -1
+1 x_3_20_0 +0 x_3_20_1 +0 x_3_20_2 +0 x_3_20_3 -1 x_3_10_0_sb +1 x_3_10_1_sb +0 x_3_10_2_sb -1 x_3_10_3_sb +0 p0_3_10 +1 p1_3_10 >= -1
+1 x_3_20_0 +0 x_3_20_1 +0 x_3_20_2 +0 x_3_20_3 -1 x_3_10_0_sb -1 x_3_10_1_sb +0 x_3_10_2_sb +1 x_3_10_3_sb +0 p0_3_10 +1 p1_3_10 >= -1
-1 x_3_20_0 -1 x_3_20_1 +0 x_3_20_2 +1 x_3_20_3 +1 x_3_10_0_sb +0 x_3_10_1_sb +0 x_3_10_2_sb +0 x_3_10_3_sb +0 p0_3_10 +1 p1_3_10 >= -1
-1 x_3_20_0 +1 x_3_20_1 +0 x_3_20_2 -1 x_3_20_3 +1 x_3_10_0_sb +0 x_3_10_1_sb +0 x_3_10_2_sb +0 x_3_10_3_sb +0 p0_3_10 +1 p1_3_10 >= -1
+0 x_3_20_0 -1 x_3_20_1 +0 x_3_20_2 -1 x_3_20_3 +0 x_3_10_0_sb -1 x_3_10_1_sb +0 x_3_10_2_sb -1 x_3_10_3_sb +0 p0_3_10 +1 p1_3_10 >= -3
+1 x_3_20_0 +1 x_3_20_1 +0 x_3_20_2 +1 x_3_20_3 +0 x_3_10_0_sb +0 x_3_10_1_sb -1 x_3_10_2_sb +0 x_3_10_3_sb +0 p0_3_10 +0 p1_3_10 >= 0
-1 x_3_20_0 +0 x_3_20_1 +1 x_3_20_2 -1 x_3_20_3 +0 x_3_10_0_sb -1 x_3_10_1_sb -1 x_3_10_2_sb +0 x_3_10_3_sb +0 p0_3_10 -1 p1_3_10 >= -4
+1 x_3_20_0 +1 x_3_20_1 +0 x_3_20_2 -1 x_3_20_3 +1 x_3_10_0_sb +1 x_3_10_1_sb +0 x_3_10_2_sb -1 x_3_10_3_sb +0 p0_3_10 -1 p1_3_10 >= -2
+1 x_3_20_0 +0 x_3_20_1 +1 x_3_20_2 +0 x_3_20_3 +0 x_3_10_0_sb +1 x_3_10_1_sb +1 x_3_10_2_sb +1 x_3_10_3_sb +0 p0_3_10 -1 p1_3_10 >= 0
+1 x_3_20_0 +0 x_3_20_1 -1 x_3_20_2 -1 x_3_20_3 -1 x_3_10_0_sb -1 x_3_10_1_sb +0 x_3_10_2_sb -1 x_3_10_3_sb +0 p0_3_10 -1 p1_3_10 >= -5
+0 x_3_20_0 +0 x_3_20_1 +1 x_3_20_2 +1 x_3_20_3 -1 x_3_10_0_sb +0 x_3_10_1_sb -1 x_3_10_2_sb +0 x_3_10_3_sb +0 p0_3_10 -1 p1_3_10 >= -2
+0 x_3_20_0 +0 x_3_20_1 +1 x_3_20_2 +0 x_3_20_3 +1 x_3_10_0_sb -1 x_3_10_1_sb +0 x_3_10_2_sb -1 x_3_10_3_sb +0 p0_3_10 +0 p1_3_10 >= -1
+0 x_3_20_0 -1 x_3_20_1 +0 x_3_20_2 -1 x_3_20_3 +0 x_3_10_0_sb +1 x_3_10_1_sb +0 x_3_10_2_sb +1 x_3_10_3_sb +0 p0_3_10 +1 p1_3_10 >= -1
+0 x_3_20_0 +1 x_3_20_1 +0 x_3_20_2 +1 x_3_20_3 +0 x_3_10_0_sb -1 x_3_10_1_sb +0 x_3_10_2_sb -1 x_3_10_3_sb +0 p0_3_10 +1 p1_3_10 >= -1
+1 x_3_20_0 -1 x_3_20_1 +1 x_3_20_2 -1 x_3_20_3 +1 x_3_10_0_sb +0 x_3_10_1_sb +0 x_3_10_2_sb +0 x_3_10_3_sb +0 p0_3_10 +0 p1_3_10 >= -1
+1 x_3_20_0 +0 x_3_20_1 +0 x_3_20_2 +0 x_3_20_3 +1 x_3_10_0_sb -1 x_3_10_1_sb +1 x_3_10_2_sb -1 x_3_10_3_sb +0 p0_3_10 +0 p1_3_10 >= -1
+0 x_3_20_0 -1 x_3_20_1 +0 x_3_20_2 -1 x_3_20_3 +1 x_3_10_0_sb -1 x_3_10_1_sb -1 x_3_10_2_sb -1 x_3_10_3_sb +0 p0_3_10 +0 p1_3_10 >= -4
+1 x_3_20_0 +0 x_3_20_1 +0 x_3_20_2 +1 x_3_20_3 +0 x_3_10_0_sb -1 x_3_10_1_sb -1 x_3_10_2_sb +1 x_3_10_3_sb +0 p0_3_10 -1 p1_3_10 >= -2
+0 x_3_20_0 +0 x_3_20_1 -1 x_3_20_2 +1 x_3_20_3 -1 x_3_10_0_sb +1 x_3_10_1_sb +0 x_3_10_2_sb -1 x_3_10_3_sb +0 p0_3_10 -1 p1_3_10 >= -3
+0 x_3_20_0 +1 x_3_20_1 +0 x_3_20_2 +1 x_3_20_3 -1 x_3_10_0_sb -1 x_3_10_1_sb +0 x_3_10_2_sb +1 x_3_10_3_sb +0 p0_3_10 -1 p1_3_10 >= -2
-1 x_3_20_0 +1 x_3_20_1 +0 x_3_20_2 -1 x_3_20_3 +0 x_3_10_0_sb +0 x_3_10_1_sb -1 x_3_10_2_sb +1 x_3_10_3_sb +0 p0_3_10 -1 p1_3_10 >= -3
-1 x_3_20_0 +0 x_3_20_1 +0 x_3_20_2 +0 x_3_20_3 -1 x_3_10_0_sb +1 x_3_10_1_sb +0 x_3_10_2_sb -1 x_3_10_3_sb +0 p0_3_10 -1 p1_3_10 >= -3
+0 x_3_20_0 +0 x_3_20_1 -1 x_3_20_2 +0 x_3_20_3 +1 x_3_10_0_sb +1 x_3_10_1_sb +0 x_3_10_2_sb +1 x_3_10_3_sb +0 p0_3_10 +0 p1_3_10 >= 0
+0 x_3_22_0 +0 x_3_22_1 +0 x_3_22_2 +0 x_3_22_3 +0 x_3_11_0_sb +0 x_3_11_1_sb +0 x_3_11_2_sb +0 x_3_11_3_sb -1 p0_3_11 -1 p1_3_11 >= -1
+0 x_3_22_0 +0 x_3_22_1 +0 x_3_22_2 +0 x_3_22_3 +0 x_3_11_0_sb +0 x_3_11_1_sb +0 x_3_11_2_sb -1 x_3_11_3_sb +1 p0_3_11 +1 p1_3_11 >= 0
+0 x_3_22_0 +0 x_3_22_1 +0 x_3_22_2 +0 x_3_22_3 +0 x_3_11_0_sb -1 x_3_11_1_sb +0 x_3_11_2_sb +0 x_3_11_3_sb +1 p0_3_11 +1 p1_3_11 >= 0
+0 x_3_22_0 +0 x_3_22_1 +0 x_3_22_2 +0 x_3_22_3 -1 x_3_11_0_sb +0 x_3_11_1_sb +0 x_3_11_2_sb +0 x_3_11_3_sb +1 p0_3_11 +1 p1_3_11 >= 0
+0 x_3_22_0 +0 x_3_22_1 +0 x_3_22_2 +0 x_3_22_3 +1 x_3_11_0_sb +1 x_3_11_1_sb +1 x_3_11_2_sb +1 x_3_11_3_sb +0 p0_3_11 -1 p1_3_11 >= 0
+0 x_3_22_0 +0 x_3_22_1 +0 x_3_22_2 -1 x_3_22_3 +1 x_3_11_0_sb +1 x_3_11_1_sb +0 x_3_11_2_sb +1 x_3_11_3_sb +0 p0_3_11 +1 p1_3_11 >= 0
-1 x_3_22_0 +0 x_3_22_1 -1 x_3_22_2 +0 x_3_22_3 +1 x_3_11_0_sb +0 x_3_11_1_sb +0 x_3_11_2_sb +1 x_3_11_3_sb +0 p0_3_11 -1 p1_3_11 >= -2
+1 x_3_22_0 +0 x_3_22_1 +1 x_3_22_2 +0 x_3_22_3 +1 x_3_11_0_sb +0 x_3_11_1_sb +1 x_3_11_2_sb +0 x_3_11_3_sb +0 p0_3_11 -1 p1_3_11 >= 0
+0 x_3_22_0 +0 x_3_22_1 +0 x_3_22_2 +1 x_3_22_3 +0 x_3_11_0_sb +1 x_3_11_1_sb -1 x_3_11_2_sb -1 x_3_11_3_sb +0 p0_3_11 -1 p1_3_11 >= -2
-1 x_3_22_0 +0 x_3_22_1 +0 x_3_22_2 -1 x_3_22_3 -1 x_3_11_0_sb +0 x_3_11_1_sb +0 x_3_11_2_sb +1 x_3_11_3_sb +0 p0_3_11 -1 p1_3_11 >= -3
+0 x_3_22_0 +0 x_3_22_1 +0 x_3_22_2 +1 x_3_22_3 -1 x_3_11_0_sb -1 x_3_11_1_sb -1 x_3_11_2_sb +0 x_3_11_3_sb +0 p0_3_11 -1 p1_3_11 >= -3
+1 x_3_22_0 +1 x_3_22_1 +0 x_3_22_2 +1 x_3_22_3 +0 x_3_11_0_sb +0 x_3_11_1_sb +0 x_3_11_2_sb +0 x_3_11_3_sb -1 p0_3_11 +0 p1_3_11 >= 0
+0 x_3_22_0 +0 x_3_22_1 +1 x_3_22_2 +1 x_3_22_3 +0 x_3_11_0_sb -1 x_3_11_1_sb +1 x_3_11_2_sb +0 x_3_11_3_sb +0 p0_3_11 -1 p1_3_11 >= -1
+0 x_3_22_0 +1 x_3_22_1 +0 x_3_22_2 -1 x_3_22_3 -1 x_3_11_0_sb +0 x_3_11_1_sb -1 x_3_11_2_sb +0 x_3_11_3_sb +0 p0_3_11 -1 p1_3_11 >= -3
+0 x_3_22_0 +1 x_3_22_1 +1 x_3_22_2 +0 x_3_22_3 +0 x_3_11_0_sb +0 x_3_11_1_sb +1 x_3_11_2_sb -1 x_3_11_3_sb +0 p0_3_11 -1 p1_3_11 >= -1
-1 x_3_22_0 +0 x_3_22_1 -1 x_3_22_2 +0 x_3_22_3 -1 x_3_11_0_sb +0 x_3_11_1_sb +1 x_3_11_2_sb +0 x_3_11_3_sb +0 p0_3_11 -1 p1_3_11 >= -3
+0 x_3_22_0 -1 x_3_22_1 -1 x_3_22_2 +0 x_3_22_3 +0 x_3_11_0_sb +1 x_3_11_1_sb +0 x_3_11_2_sb +1 x_3_11_3_sb +0 p0_3_11 -1 p1_3_11 >= -2
+0 x_3_22_0 -1 x_3_22_1 +0 x_3_22_2 +0 x_3_22_3 +1 x_3_11_0_sb +1 x_3_11_1_sb +0 x_3_11_2_sb +1 x_3_11_3_sb +0 p0_3_11 +1 p1_3_11 >= 0
-1 x_3_22_0 -1 x_3_22_1 +0 x_3_22_2 +1 x_3_22_3 +0 x_3_11_0_sb +1 x_3_11_1_sb +0 x_3_11_2_sb +1 x_3_11_3_sb +0 p0_3_11 -1 p1_3_11 >= -2
+0 x_3_22_0 -1 x_3_22_1 +0 x_3_22_2 +0 x_3_22_3 +1 x_3_11_0_sb +0 x_3_11_1_sb +1 x_3_11_2_sb +1 x_3_11_3_sb +0 p0_3_11 -1 p1_3_11 >= -1
-1 x_3_22_0 +0 x_3_22_1 -1 x_3_22_2 +0 x_3_22_3 +1 x_3_11_0_sb +1 x_3_11_1_sb +0 x_3_11_2_sb +0 x_3_11_3_sb +0 p0_3_11 -1 p1_3_11 >= -2
+0 x_3_22_0 +1 x_3_22_1 -1 x_3_22_2 -1 x_3_22_3 +0 x_3_11_0_sb +0 x_3_11_1_sb +0 x_3_11_2_sb +1 x_3_11_3_sb +0 p0_3_11 -1 p1_3_11 >= -2
-1 x_3_22_0 -1 x_3_22_1 +0 x_3_22_2 -1 x_3_22_3 +0 x_3_11_0_sb +1 x_3_11_1_sb +0 x_3_11_2_sb -1 x_3_11_3_sb +0 p0_3_11 -1 p1_3_11 >= -4
-1 x_3_22_0 +1 x_3_22_1 +0 x_3_22_2 +1 x_3_22_3 +0 x_3_11_0_sb +1 x_3_11_1_sb +0 x_3_11_2_sb +1 x_3_11_3_sb +0 p0_3_11 +1 p1_3_11 >= 0
+0 x_3_22_0 +0 x_3_22_1 +0 x_3_22_2 +0 x_3_22_3 +1 x_3_11_0_sb -1 x_3_11_1_sb +0 x_3_11_2_sb -1 x_3_11_3_sb +0 p0_3_11 +1 p1_3_11 >= -1
+1 x_3_22_0 +0 x_3_22_1 +1 x_3_22_2 +0 x_3_22_3 +1 x_3_11_0_sb -1 x_3_11_1_sb +0 x_3_11_2_sb +0 x_3_11_3_sb +0 p0_3_11 -1 p1_3_11 >= -1
+0 x_3_22_0 +1 x_3_22_1 +0 x_3_22_2 +1 x_3_22_3 +0 x_3_11_0_sb -1 x_3_11_1_sb -1 x_3_11_2_sb +0 x_3_11_3_sb +0 p0_3_11 -1 p1_3_11 >= -2
+1 x_3_22_0 -1 x_3_22_1 +0 x_3_22_2 -1 x_3_22_3 +0 x_3_11_0_sb +0 x_3_11_1_sb +1 x_3_11_2_sb +0 x_3_11_3_sb +0 p0_3_11 +0 p1_3_11 >= -1
+1 x_3_22_0 -1 x_3_22_1 -1 x_3_22_2 +0 x_3_22_3 +0 x_3_11_0_sb +0 x_3_11_1_sb +1 x_3_11_2_sb -1 x_3_11_3_sb +0 p0_3_11 -1 p1_3_11 >= -3
+1 x_3_22_0 -1 x_3_22_1 +0 x_3_22_2 -1 x_3_22_3 +0 x_3_11_0_sb +0 x_3_11_1_sb +0 x_3_11_2_sb +0 x_3_11_3_sb +0 p0_3_11 +1 p1_3_11 >= -1
+1 x_3_22_0 +0 x_3_22_1 +0 x_3_22_2 +0 x_3_22_3 -1 x_3_11_0_sb +1 x_3_11_1_sb +0 x_3_11_2_sb -1 x_3_11_3_sb +0 p0_3_11 +1 p1_3_11 >= -1
+1 x_3_22_0 +0 x_3_22_1 +0 x_3_22_2 +0 x_3_22_3 -1 x_3_11_0_sb -1 x_3_11_1_sb +0 x_3_11_2_sb +1 x_3_11_3_sb +0 p0_3_11 +1 p1_3_11 >= -1
-1 x_3_22_0 -1 x_3_22_1 +0 x_3_22_2 +1 x_3_22_3 +1 x_3_11_0_sb +0 x_3_11_1_sb +0 x_3_11_2_sb +0 x_3_11_3_sb +0 p0_3_11 +1 p1_3_11 >= -1
-1 x_3_22_0 +1 x_3_22_1 +0 x_3_22_2 -1 x_3_22_3 +1 x_3_11_0_sb +0 x_3_11_1_sb +0 x_3_11_2_sb +0 x_3_11_3_sb +0 p0_3_11 +1 p1_3_11 >= -1
+0 x_3_22_0 -1 x_3_22_1 +0 x_3_22_2 -1 x_3_22_3 +0 x_3_11_0_sb -1 x_3_11_1_sb +0 x_3_11_2_sb -1 x_3_11_3_sb +0 p0_3_11 +1 p1_3_11 >= -3
+1 x_3_22_0 +1 x_3_22_1 +0 x_3_22_2 +1 x_3_22_3 +0 x_3_11_0_sb +0 x_3_11_1_sb -1 x_3_11_2_sb +0 x_3_11_3_sb +0 p0_3_11 +0 p1_3_11 >= 0
-1 x_3_22_0 +0 x_3_22_1 +1 x_3_22_2 -1 x_3_22_3 +0 x_3_11_0_sb -1 x_3_11_1_sb -1 x_3_11_2_sb +0 x_3_11_3_sb +0 p0_3_11 -1 p1_3_11 >= -4
+1 x_3_22_0 +1 x_3_22_1 +0 x_3_22_2 -1 x_3_22_3 +1 x_3_11_0_sb +1 x_3_11_1_sb +0 x_3_11_2_sb -1 x_3_11_3_sb +0 p0_3_11 -1 p1_3_11 >= -2
+1 x_3_22_0 +0 x_3_22_1 +1 x_3_22_2 +0 x_3_22_3 +0 x_3_11_0_sb +1 x_3_11_1_sb +1 x_3_11_2_sb +1 x_3_11_3_sb +0 p0_3_11 -1 p1_3_11 >= 0
+1 x_3_22_0 +0 x_3_22_1 -1 x_3_22_2 -1 x_3_22_3 -1 x_3_11_0_sb -1 x_3_11_1_sb +0 x_3_11_2_sb -1 x_3_11_3_sb +0 p0_3_11 -1 p1_3_11 >= -5
+0 x_3_22_0 +0 x_3_22_1 +1 x_3_22_2 +1 x_3_22_3 -1 x_3_11_0_sb +0 x_3_11_1_sb -1 x_3_11_2_sb +0 x_3_11_3_sb +0 p0_3_11 -1 p1_3_11 >= -2
+0 x_3_22_0 +0 x_3_22_1 +1 x_3_22_2 +0 x_3_22_3 +1 x_3_11_0_sb -1 x_3_11_1_sb +0 x_3_11_2_sb -1 x_3_11_3_sb +0 p0_3_11 +0 p1_3_11 >= -1
+0 x_3_22_0 -1 x_3_22_1 +0 x_3_22_2 -1 x_3_22_3 +0 x_3_11_0_sb +1 x_3_11_1_sb +0 x_3_11_2_sb +1 x_3_11_3_sb +0 p0_3_11 +1 p1_3_11 >= -1
+0 x_3_22_0 +1 x_3_22_1 +0 x_3_22_2 +1 x_3_22_3 +0 x_3_11_0_sb -1 x_3_11_1_sb +0 x_3_11_2_sb -1 x_3_11_3_sb +0 p0_3_11 +1 p1_3_11 >= -1
+1 x_3_22_0 -1 x_3_22_1 +1 x_3_22_2 -1 x_3_22_3 +1 x_3_11_0_sb +0 x_3_11_1_sb +0 x_3_11_2_sb +0 x_3_11_3_sb +0 p0_3_11 +0 p1_3_11 >= -1
+1 x_3_22_0 +0 x_3_22_1 +0 x_3_22_2 +0 x_3_22_3 +1 x_3_11_0_sb -1 x_3_11_1_sb +1 x_3_11_2_sb -1 x_3_11_3_sb +0 p0_3_11 +0 p1_3_11 >= -1
+0 x_3_22_0 -1 x_3_22_1 +0 x_3_22_2 -1 x_3_22_3 +1 x_3_11_0_sb -1 x_3_11_1_sb -1 x_3_11_2_sb -1 x_3_11_3_sb +0 p0_3_11 +0 p1_3_11 >= -4
+1 x_3_22_0 +0 x_3_22_1 +0 x_3_22_2 +1 x_3_22_3 +0 x_3_11_0_sb -1 x_3_11_1_sb -1 x_3_11_2_sb +1 x_3_11_3_sb +0 p0_3_11 -1 p1_3_11 >= -2
+0 x_3_22_0 +0 x_3_22_1 -1 x_3_22_2 +1 x_3_22_3 -1 x_3_11_0_sb +1 x_3_11_1_sb +0 x_3_11_2_sb -1 x_3_11_3_sb +0 p0_3_11 -1 p1_3_11 >= -3
+0 x_3_22_0 +1 x_3_22_1 +0 x_3_22_2 +1 x_3_22_3 -1 x_3_11_0_sb -1 x_3_11_1_sb +0 x_3_11_2_sb +1 x_3_11_3_sb +0 p0_3_11 -1 p1_3_11 >= -2
-1 x_3_22_0 +1 x_3_22_1 +0 x_3_22_2 -1 x_3_22_3 +0 x_3_11_0_sb +0 x_3_11_1_sb -1 x_3_11_2_sb +1 x_3_11_3_sb +0 p0_3_11 -1 p1_3_11 >= -3
-1 x_3_22_0 +0 x_3_22_1 +0 x_3_22_2 +0 x_3_22_3 -1 x_3_11_0_sb +1 x_3_11_1_sb +0 x_3_11_2_sb -1 x_3_11_3_sb +0 p0_3_11 -1 p1_3_11 >= -3
+0 x_3_22_0 +0 x_3_22_1 -1 x_3_22_2 +0 x_3_22_3 +1 x_3_11_0_sb +1 x_3_11_1_sb +0 x_3_11_2_sb +1 x_3_11_3_sb +0 p0_3_11 +0 p1_3_11 >= 0
+0 x_3_24_0 +0 x_3_24_1 +0 x_3_24_2 +0 x_3_24_3 +0 x_3_12_0_sb +0 x_3_12_1_sb +0 x_3_12_2_sb +0 x_3_12_3_sb -1 p0_3_12 -1 p1_3_12 >= -1
+0 x_3_24_0 +0 x_3_24_1 +0 x_3_24_2 +0 x_3_24_3 +0 x_3_12_0_sb +0 x_3_12_1_sb +0 x_3_12_2_sb -1 x_3_12_3_sb +1 p0_3_12 +1 p1_3_12 >= 0
+0 x_3_24_0 +0 x_3_24_1 +0 x_3_24_2 +0 x_3_24_3 +0 x_3_12_0_sb -1 x_3_12_1_sb +0 x_3_12_2_sb +0 x_3_12_3_sb +1 p0_3_12 +1 p1_3_12 >= 0
+0 x_3_24_0 +0 x_3_24_1 +0 x_3_24_2 +0 x_3_24_3 -1 x_3_12_0_sb +0 x_3_12_1_sb +0 x_3_12_2_sb +0 x_3_12_3_sb +1 p0_3_12 +1 p1_3_12 >= 0
+0 x_3_24_0 +0 x_3_24_1 +0 x_3_24_2 +0 x_3_24_3 +1 x_3_12_0_sb +1 x_3_12_1_sb +1 x_3_12_2_sb +1 x_3_12_3_sb +0 p0_3_12 -1 p1_3_12 >= 0
+0 x_3_24_0 +0 x_3_24_1 +0 x_3_24_2 -1 x_3_24_3 +1 x_3_12_0_sb +1 x_3_12_1_sb +0 x_3_12_2_sb +1 x_3_12_3_sb +0 p0_3_12 +1 p1_3_12 >= 0
-1 x_3_24_0 +0 x_3_24_1 -1 x_3_24_2 +0 x_3_24_3 +1 x_3_12_0_sb +0 x_3_12_1_sb +0 x_3_12_2_sb +1 x_3_12_3_sb +0 p0_3_12 -1 p1_3_12 >= -2
+1 x_3_24_0 +0 x_3_24_1 +1 x_3_24_2 +0 x_3_24_3 +1 x_3_12_0_sb +0 x_3_12_1_sb +1 x_3_12_2_sb +0 x_3_12_3_sb +0 p0_3_12 -1 p1_3_12 >= 0
+0 x_3_24_0 +0 x_3_24_1 +0 x_3_24_2 +1 x_3_24_3 +0 x_3_12_0_sb +1 x_3_12_1_sb -1 x_3_12_2_sb -1 x_3_12_3_sb +0 p0_3_12 -1 p1_3_12 >= -2
-1 x_3_24_0 +0 x_3_24_1 +0 x_3_24_2 -1 x_3_24_3 -1 x_3_12_0_sb +0 x_3_12_1_sb +0 x_3_12_2_sb +1 x_3_12_3_sb +0 p0_3_12 -1 p1_3_12 >= -3
+0 x_3_24_0 +0 x_3_24_1 +0 x_3_24_2 +1 x_3_24_3 -1 x_3_12_0_sb -1 x_3_12_1_sb -1 x_3_12_2_sb +0 x_3_12_3_sb +0 p0_3_12 -1 p1_3_12 >= -3
+1 x_3_24_0 +1 x_3_24_1 +0 x_3_24_2 +1 x_3_24_3 +0 x_3_12_0_sb +0 x_3_12_1_sb +0 x_3_12_2_sb +0 x_3_12_3_sb -1 p0_3_12 +0 p1_3_12 >= 0
+0 x_3_24_0 +0 x_3_24_1 +1 x_3_24_2 +1 x_3_24_3 +0 x_3_12_0_sb -1 x_3_12_1_sb +1 x_3_12_2_sb +0 x_3_12_3_sb +0 p0_3_12 -1 p1_3_12 >= -1
+0 x_3_24_0 +1 x_3_24_1 +0 x_3_24_2 -1 x_3_24_3 -1 x_3_12_0_sb +0 x_3_12_1_sb -1 x_3_12_2_sb +0 x_3_12_3_sb +0 p0_3_12 -1 p1_3_12 >= -3
+0 x_3_24_0 +1 x_3_24_1 +1 x_3_24_2 +0 x_3_24_3 +0 x_3_12_0_sb +0 x_3_12_1_sb +1 x_3_12_2_sb -1 x_3_12_3_sb +0 p0_3_12 -1 p1_3_12 >= -1
-1 x_3_24_0 +0 x_3_24_1 -1 x_3_24_2 +0 x_3_24_3 -1 x_3_12_0_sb +0 x_3_12_1_sb +1 x_3_12_2_sb +0 x_3_12_3_sb +0 p0_3_12 -1 p1_3_12 >= -3
+0 x_3_24_0 -1 x_3_24_1 -1 x_3_24_2 +0 x_3_24_3 +0 x_3_12_0_sb +1 x_3_12_1_sb +0 x_3_12_2_sb +1 x_3_12_3_sb +0 p0_3_12 -1 p1_3_12 >= -2
+0 x_3_24_0 -1 x_3_24_1 +0 x_3_24_2 +0 x_3_24_3 +1 x_3_12_0_sb +1 x_3_12_1_sb +0 x_3_12_2_sb +1 x_3_12_3_sb +0 p0_3_12 +1 p1_3_12 >= 0
-1 x_3_24_0 -1 x_3_24_1 +0 x_3_24_2 +1 x_3_24_3 +0 x_3_12_0_sb +1 x_3_12_1_sb +0 x_3_12_2_sb +1 x_3_12_3_sb +0 p0_3_12 -1 p1_3_12 >= -2
+0 x_3_24_0 -1 x_3_24_1 +0 x_3_24_2 +0 x_3_24_3 +1 x_3_12_0_sb +0 x_3_12_1_sb +1 x_3_12_2_sb +1 x_3_12_3_sb +0 p0_3_12 -1 p1_3_12 >= -1
-1 x_3_24_0 +0 x_3_24_1 -1 x_3_24_2 +0 x_3_24_3 +1 x_3_12_0_sb +1 x_3_12_1_sb +0 x_3_12_2_sb +0 x_3_12_3_sb +0 p0_3_12 -1 p1_3_12 >= -2
+0 x_3_24_0 +1 x_3_24_1 -1 x_3_24_2 -1 x_3_24_3 +0 x_3_12_0_sb +0 x_3_12_1_sb +0 x_3_12_2_sb +1 x_3_12_3_sb +0 p0_3_12 -1 p1_3_12 >= -2
-1 x_3_24_0 -1 x_3_24_1 +0 x_3_24_2 -1 x_3_24_3 +0 x_3_12_0_sb +1 x_3_12_1_sb +0 x_3_12_2_sb -1 x_3_12_3_sb +0 p0_3_12 -1 p1_3_12 >= -4
-1 x_3_24_0 +1 x_3_24_1 +0 x_3_24_2 +1 x_3_24_3 +0 x_3_12_0_sb +1 x_3_12_1_sb +0 x_3_12_2_sb +1 x_3_12_3_sb +0 p0_3_12 +1 p1_3_12 >= 0
+0 x_3_24_0 +0 x_3_24_1 +0 x_3_24_2 +0 x_3_24_3 +1 x_3_12_0_sb -1 x_3_12_1_sb +0 x_3_12_2_sb -1 x_3_12_3_sb +0 p0_3_12 +1 p1_3_12 >= -1
+1 x_3_24_0 +0 x_3_24_1 +1 x_3_24_2 +0 x_3_24_3 +1 x_3_12_0_sb -1 x_3_12_1_sb +0 x_3_12_2_sb +0 x_3_12_3_sb +0 p0_3_12 -1 p1_3_12 >= -1
+0 x_3_24_0 +1 x_3_24_1 +0 x_3_24_2 +1 x_3_24_3 +0 x_3_12_0_sb -1 x_3_12_1_sb -1 x_3_12_2_sb +0 x_3_12_3_sb +0 p0_3_12 -1 p1_3_12 >= -2
+1 x_3_24_0 -1 x_3_24_1 +0 x_3_24_2 -1 x_3_24_3 +0 x_3_12_0_sb +0 x_3_12_1_sb +1 x_3_12_2_sb +0 x_3_12_3_sb +0 p0_3_12 +0 p1_3_12 >= -1
+1 x_3_24_0 -1 x_3_24_1 -1 x_3_24_2 +0 x_3_24_3 +0 x_3_12_0_sb +0 x_3_12_1_sb +1 x_3_12_2_sb -1 x_3_12_3_sb +0 p0_3_12 -1 p1_3_12 >= -3
+1 x_3_24_0 -1 x_3_24_1 +0 x_3_24_2 -1 x_3_24_3 +0 x_3_12_0_sb +0 x_3_12_1_sb +0 x_3_12_2_sb +0 x_3_12_3_sb +0 p0_3_12 +1 p1_3_12 >= -1
+1 x_3_24_0 +0 x_3_24_1 +0 x_3_24_2 +0 x_3_24_3 -1 x_3_12_0_sb +1 x_3_12_1_sb +0 x_3_12_2_sb -1 x_3_12_3_sb +0 p0_3_12 +1 p1_3_12 >= -1
+1 x_3_24_0 +0 x_3_24_1 +0 x_3_24_2 +0 x_3_24_3 -1 x_3_12_0_sb -1 x_3_12_1_sb +0 x_3_12_2_sb +1 x_3_12_3_sb +0 p0_3_12 +1 p1_3_12 >= -1
-1 x_3_24_0 -1 x_3_24_1 +0 x_3_24_2 +1 x_3_24_3 +1 x_3_12_0_sb +0 x_3_12_1_sb +0 x_3_12_2_sb +0 x_3_12_3_sb +0 p0_3_12 +1 p1_3_12 >= -1
-1 x_3_24_0 +1 x_3_24_1 +0 x_3_24_2 -1 x_3_24_3 +1 x_3_12_0_sb +0 x_3_12_1_sb +0 x_3_12_2_sb +0 x_3_12_3_sb +0 p0_3_12 +1 p1_3_12 >= -1
+0 x_3_24_0 -1 x_3_24_1 +0 x_3_24_2 -1 x_3_24_3 +0 x_3_12_0_sb -1 x_3_12_1_sb +0 x_3_12_2_sb -1 x_3_12_3_sb +0 p0_3_12 +1 p1_3_12 >= -3
+1 x_3_24_0 +1 x_3_24_1 +0 x_3_24_2 +1 x_3_24_3 +0 x_3_12_0_sb +0 x_3_12_1_sb -1 x_3_12_2_sb +0 x_3_12_3_sb +0 p0_3_12 +0 p1_3_12 >= 0
-1 x_3_24_0 +0 x_3_24_1 +1 x_3_24_2 -1 x_3_24_3 +0 x_3_12_0_sb -1 x_3_12_1_sb -1 x_3_12_2_sb +0 x_3_12_3_sb +0 p0_3_12 -1 p1_3_12 >= -4
+1 x_3_24_0 +1 x_3_24_1 +0 x_3_24_2 -1 x_3_24_3 +1 x_3_12_0_sb +1 x_3_12_1_sb +0 x_3_12_2_sb -1 x_3_12_3_sb +0 p0_3_12 -1 p1_3_12 >= -2
+1 x_3_24_0 +0 x_3_24_1 +1 x_3_24_2 +0 x_3_24_3 +0 x_3_12_0_sb +1 x_3_12_1_sb +1 x_3_12_2_sb +1 x_3_12_3_sb +0 p0_3_12 -1 p1_3_12 >= 0
+1 x_3_24_0 +0 x_3_24_1 -1 x_3_24_2 -1 x_3_24_3 -1 x_3_12_0_sb -1 x_3_12_1_sb +0 x_3_12_2_sb -1 x_3_12_3_sb +0 p0_3_12 -1 p1_3_12 >= -5
+0 x_3_24_0 +0 x_3_24_1 +1 x_3_24_2 +1 x_3_24_3 -1 x_3_12_0_sb +0 x_3_12_1_sb -1 x_3_12_2_sb +0 x_3_12_3_sb +0 p0_3_12 -1 p1_3_12 >= -2
+0 x_3_24_0 +0 x_3_24_1 +1 x_3_24_2 +0 x_3_24_3 +1 x_3_12_0_sb -1 x_3_12_1_sb +0 x_3_12_2_sb -1 x_3_12_3_sb +0 p0_3_12 +0 p1_3_12 >= -1
+0 x_3_24_0 -1 x_3_24_1 +0 x_3_24_2 -1 x_3_24_3 +0 x_3_12_0_sb +1 x_3_12_1_sb +0 x_3_12_2_sb +1 x_3_12_3_sb +0 p0_3_12 +1 p1_3_12 >= -1
+0 x_3_24_0 +1 x_3_24_1 +0 x_3_24_2 +1 x_3_24_3 +0 x_3_12_0_sb -1 x_3_12_1_sb +0 x_3_12_2_sb -1 x_3_12_3_sb +0 p0_3_12 +1 p1_3_12 >= -1
+1 x_3_24_0 -1 x_3_24_1 +1 x_3_24_2 -1 x_3_24_3 +1 x_3_12_0_sb +0 x_3_12_1_sb +0 x_3_12_2_sb +0 x_3_12_3_sb +0 p0_3_12 +0 p1_3_12 >= -1
+1 x_3_24_0 +0 x_3_24_1 +0 x_3_24_2 +0 x_3_24_3 +1 x_3_12_0_sb -1 x_3_12_1_sb +1 x_3_12_2_sb -1 x_3_12_3_sb +0 p0_3_12 +0 p1_3_12 >= -1
+0 x_3_24_0 -1 x_3_24_1 +0 x_3_24_2 -1 x_3_24_3 +1 x_3_12_0_sb -1 x_3_12_1_sb -1 x_3_12_2_sb -1 x_3_12_3_sb +0 p0_3_12 +0 p1_3_12 >= -4
+1 x_3_24_0 +0 x_3_24_1 +0 x_3_24_2 +1 x_3_24_3 +0 x_3_12_0_sb -1 x_3_12_1_sb -1 x_3_12_2_sb +1 x_3_12_3_sb +0 p0_3_12 -1 p1_3_12 >= -2
+0 x_3_24_0 +0 x_3_24_1 -1 x_3_24_2 +1 x_3_24_3 -1 x_3_12_0_sb +1 x_3_12_1_sb +0 x_3_12_2_sb -1 x_3_12_3_sb +0 p0_3_12 -1 p1_3_12 >= -3
+0 x_3_24_0 +1 x_3_24_1 +0 x_3_24_2 +1 x_3_24_3 -1 x_3_12_0_sb -1 x_3_12_1_sb +0 x_3_12_2_sb +1 x_3_12_3_sb +0 p0_3_12 -1 p1_3_12 >= -2
-1 x_3_24_0 +1 x_3_24_1 +0 x_3_24_2 -1 x_3_24_3 +0 x_3_12_0_sb +0 x_3_12_1_sb -1 x_3_12_2_sb +1 x_3_12_3_sb +0 p0_3_12 -1 p1_3_12 >= -3
-1 x_3_24_0 +0 x_3_24_1 +0 x_3_24_2 +0 x_3_24_3 -1 x_3_12_0_sb +1 x_3_12_1_sb +0 x_3_12_2_sb -1 x_3_12_3_sb +0 p0_3_12 -1 p1_3_12 >= -3
+0 x_3_24_0 +0 x_3_24_1 -1 x_3_24_2 +0 x_3_24_3 +1 x_3_12_0_sb +1 x_3_12_1_sb +0 x_3_12_2_sb +1 x_3_12_3_sb +0 p0_3_12 +0 p1_3_12 >= 0
+0 x_3_26_0 +0 x_3_26_1 +0 x_3_26_2 +0 x_3_26_3 +0 x_3_13_0_sb +0 x_3_13_1_sb +0 x_3_13_2_sb +0 x_3_13_3_sb -1 p0_3_13 -1 p1_3_13 >= -1
+0 x_3_26_0 +0 x_3_26_1 +0 x_3_26_2 +0 x_3_26_3 +0 x_3_13_0_sb +0 x_3_13_1_sb +0 x_3_13_2_sb -1 x_3_13_3_sb +1 p0_3_13 +1 p1_3_13 >= 0
+0 x_3_26_0 +0 x_3_26_1 +0 x_3_26_2 +0 x_3_26_3 +0 x_3_13_0_sb -1 x_3_13_1_sb +0 x_3_13_2_sb +0 x_3_13_3_sb +1 p0_3_13 +1 p1_3_13 >= 0
+0 x_3_26_0 +0 x_3_26_1 +0 x_3_26_2 +0 x_3_26_3 -1 x_3_13_0_sb +0 x_3_13_1_sb +0 x_3_13_2_sb +0 x_3_13_3_sb +1 p0_3_13 +1 p1_3_13 >= 0
+0 x_3_26_0 +0 x_3_26_1 +0 x_3_26_2 +0 x_3_26_3 +1 x_3_13_0_sb +1 x_3_13_1_sb +1 x_3_13_2_sb +1 x_3_13_3_sb +0 p0_3_13 -1 p1_3_13 >= 0
+0 x_3_26_0 +0 x_3_26_1 +0 x_3_26_2 -1 x_3_26_3 +1 x_3_13_0_sb +1 x_3_13_1_sb +0 x_3_13_2_sb +1 x_3_13_3_sb +0 p0_3_13 +1 p1_3_13 >= 0
-1 x_3_26_0 +0 x_3_26_1 -1 x_3_26_2 +0 x_3_26_3 +1 x_3_13_0_sb +0 x_3_13_1_sb +0 x_3_13_2_sb +1 x_3_13_3_sb +0 p0_3_13 -1 p1_3_13 >= -2
+1 x_3_26_0 +0 x_3_26_1 +1 x_3_26_2 +0 x_3_26_3 +1 x_3_13_0_sb +0 x_3_13_1_sb +1 x_3_13_2_sb +0 x_3_13_3_sb +0 p0_3_13 -1 p1_3_13 >= 0
+0 x_3_26_0 +0 x_3_26_1 +0 x_3_26_2 +1 x_3_26_3 +0 x_3_13_0_sb +1 x_3_13_1_sb -1 x_3_13_2_sb -1 x_3_13_3_sb +0 p0_3_13 -1 p1_3_13 >= -2
-1 x_3_26_0 +0 x_3_26_1 +0 x_3_26_2 -1 x_3_26_3 -1 x_3_13_0_sb +0 x_3_13_1_sb +0 x_3_13_2_sb +1 x_3_13_3_sb +0 p0_3_13 -1 p1_3_13 >= -3
+0 x_3_26_0 +0 x_3_26_1 +0 x_3_26_2 +1 x_3_26_3 -1 x_3_13_0_sb -1 x_3_13_1_sb -1 x_3_13_2_sb +0 x_3_13_3_sb +0 p0_3_13 -1 p1_3_13 >= -3
+1 x_3_26_0 +1 x_3_26_1 +0 x_3_26_2 +1 x_3_26_3 +0 x_3_13_0_sb +0 x_3_13_1_sb +0 x_3_13_2_sb +0 x_3_13_3_sb -1 p0_3_13 +0 p1_3_13 >= 0
+0 x_3_26_0 +0 x_3_26_1 +1 x_3_26_2 +1 x_3_26_3 +0 x_3_13_0_sb -1 x_3_13_1_sb +1 x_3_13_2_sb +0 x_3_13_3_sb +0 p0_3_13 -1 p1_3_13 >= -1
+0 x_3_26_0 +1 x_3_26_1 +0 x_3_26_2 -1 x_3_26_3 -1 x_3_13_0_sb +0 x_3_13_1_sb -1 x_3_13_2_sb +0 x_3_13_3_sb +0 p0_3_13 -1 p1_3_13 >= -3
+0 x_3_26_0 +1 x_3_26_1 +1 x_3_26_2 +0 x_3_26_3 +0 x_3_13_0_sb +0 x_3_13_1_sb +1 x_3_13_2_sb -1 x_3_13_3_sb +0 p0_3_13 -1 p1_3_13 >= -1
-1 x_3_26_0 +0 x_3_26_1 -1 x_3_26_2 +0 x_3_26_3 -1 x_3_13_0_sb +0 x_3_13_1_sb +1 x_3_13_2_sb +0 x_3_13_3_sb +0 p0_3_13 -1 p1_3_13 >= -3
+0 x_3_26_0 -1 x_3_26_1 -1 x_3_26_2 +0 x_3_26_3 +0 x_3_13_0_sb +1 x_3_13_1_sb +0 x_3_13_2_sb +1 x_3_13_3_sb +0 p0_3_13 -1 p1_3_13 >= -2
+0 x_3_26_0 -1 x_3_26_1 +0 x_3_26_2 +0 x_3_26_3 +1 x_3_13_0_sb +1 x_3_13_1_sb +0 x_3_13_2_sb +1 x_3_13_3_sb +0 p0_3_13 +1 p1_3_13 >= 0
-1 x_3_26_0 -1 x_3_26_1 +0 x_3_26_2 +1 x_3_26_3 +0 x_3_13_0_sb +1 x_3_13_1_sb +0 x_3_13_2_sb +1 x_3_13_3_sb +0 p0_3_13 -1 p1_3_13 >= -2
+0 x_3_26_0 -1 x_3_26_1 +0 x_3_26_2 +0 x_3_26_3 +1 x_3_13_0_sb +0 x_3_13_1_sb +1 x_3_13_2_sb +1 x_3_13_3_sb +0 p0_3_13 -1 p1_3_13 >= -1
-1 x_3_26_0 +0 x_3_26_1 -1 x_3_26_2 +0 x_3_26_3 +1 x_3_13_0_sb +1 x_3_13_1_sb +0 x_3_13_2_sb +0 x_3_13_3_sb +0 p0_3_13 -1 p1_3_13 >= -2
+0 x_3_26_0 +1 x_3_26_1 -1 x_3_26_2 -1 x_3_26_3 +0 x_3_13_0_sb +0 x_3_13_1_sb +0 x_3_13_2_sb +1 x_3_13_3_sb +0 p0_3_13 -1 p1_3_13 >= -2
-1 x_3_26_0 -1 x_3_26_1 +0 x_3_26_2 -1 x_3_26_3 +0 x_3_13_0_sb +1 x_3_13_1_sb +0 x_3_13_2_sb -1 x_3_13_3_sb +0 p0_3_13 -1 p1_3_13 >= -4
-1 x_3_26_0 +1 x_3_26_1 +0 x_3_26_2 +1 x_3_26_3 +0 x_3_13_0_sb +1 x_3_13_1_sb +0 x_3_13_2_sb +1 x_3_13_3_sb +0 p0_3_13 +1 p1_3_13 >= 0
+0 x_3_26_0 +0 x_3_26_1 +0 x_3_26_2 +0 x_3_26_3 +1 x_3_13_0_sb -1 x_3_13_1_sb +0 x_3_13_2_sb -1 x_3_13_3_sb +0 p0_3_13 +1 p1_3_13 >= -1
+1 x_3_26_0 +0 x_3_26_1 +1 x_3_26_2 +0 x_3_26_3 +1 x_3_13_0_sb -1 x_3_13_1_sb +0 x_3_13_2_sb +0 x_3_13_3_sb +0 p0_3_13 -1 p1_3_13 >= -1
+0 x_3_26_0 +1 x_3_26_1 +0 x_3_26_2 +1 x_3_26_3 +0 x_3_13_0_sb -1 x_3_13_1_sb -1 x_3_13_2_sb +0 x_3_13_3_sb +0 p0_3_13 -1 p1_3_13 >= -2
+1 x_3_26_0 -1 x_3_26_1 +0 x_3_26_2 -1 x_3_26_3 +0 x_3_13_0_sb +0 x_3_13_1_sb +1 x_3_13_2_sb +0 x_3_13_3_sb +0 p0_3_13 +0 p1_3_13 >= -1
+1 x_3_26_0 -1 x_3_26_1 -1 x_3_26_2 +0 x_3_26_3 +0 x_3_13_0_sb +0 x_3_13_1_sb +1 x_3_13_2_sb -1 x_3_13_3_sb +0 p0_3_13 -1 p1_3_13 >= -3
+1 x_3_26_0 -1 x_3_26_1 +0 x_3_26_2 -1 x_3_26_3 +0 x_3_13_0_sb +0 x_3_13_1_sb +0 x_3_13_2_sb +0 x_3_13_3_sb +0 p0_3_13 +1 p1_3_13 >= -1
+1 x_3_26_0 +0 x_3_26_1 +0 x_3_26_2 +0 x_3_26_3 -1 x_3_13_0_sb +1 x_3_13_1_sb +0 x_3_13_2_sb -1 x_3_13_3_sb +0 p0_3_13 +1 p1_3_13 >= -1
+1 x_3_26_0 +0 x_3_26_1 +0 x_3_26_2 +0 x_3_26_3 -1 x_3_13_0_sb -1 x_3_13_1_sb +0 x_3_13_2_sb +1 x_3_13_3_sb +0 p0_3_13 +1 p1_3_13 >= -1
-1 x_3_26_0 -1 x_3_26_1 +0 x_3_26_2 +1 x_3_26_3 +1 x_3_13_0_sb +0 x_3_13_1_sb +0 x_3_13_2_sb +0 x_3_13_3_sb +0 p0_3_13 +1 p1_3_13 >= -1
-1 x_3_26_0 +1 x_3_26_1 +0 x_3_26_2 -1 x_3_26_3 +1 x_3_13_0_sb +0 x_3_13_1_sb +0 x_3_13_2_sb +0 x_3_13_3_sb +0 p0_3_13 +1 p1_3_13 >= -1
+0 x_3_26_0 -1 x_3_26_1 +0 x_3_26_2 -1 x_3_26_3 +0 x_3_13_0_sb -1 x_3_13_1_sb +0 x_3_13_2_sb -1 x_3_13_3_sb +0 p0_3_13 +1 p1_3_13 >= -3
+1 x_3_26_0 +1 x_3_26_1 +0 x_3_26_2 +1 x_3_26_3 +0 x_3_13_0_sb +0 x_3_13_1_sb -1 x_3_13_2_sb +0 x_3_13_3_sb +0 p0_3_13 +0 p1_3_13 >= 0
-1 x_3_26_0 +0 x_3_26_1 +1 x_3_26_2 -1 x_3_26_3 +0 x_3_13_0_sb -1 x_3_13_1_sb -1 x_3_13_2_sb +0 x_3_13_3_sb +0 p0_3_13 -1 p1_3_13 >= -4
+1 x_3_26_0 +1 x_3_26_1 +0 x_3_26_2 -1 x_3_26_3 +1 x_3_13_0_sb +1 x_3_13_1_sb +0 x_3_13_2_sb -1 x_3_13_3_sb +0 p0_3_13 -1 p1_3_13 >= -2
+1 x_3_26_0 +0 x_3_26_1 +1 x_3_26_2 +0 x_3_26_3 +0 x_3_13_0_sb +1 x_3_13_1_sb +1 x_3_13_2_sb +1 x_3_13_3_sb +0 p0_3_13 -1 p1_3_13 >= 0
+1 x_3_26_0 +0 x_3_26_1 -1 x_3_26_2 -1 x_3_26_3 -1 x_3_13_0_sb -1 x_3_13_1_sb +0 x_3_13_2_sb -1 x_3_13_3_sb +0 p0_3_13 -1 p1_3_13 >= -5
+0 x_3_26_0 +0 x_3_26_1 +1 x_3_26_2 +1 x_3_26_3 -1 x_3_13_0_sb +0 x_3_13_1_sb -1 x_3_13_2_sb +0 x_3_13_3_sb +0 p0_3_13 -1 p1_3_13 >= -2
+0 x_3_26_0 +0 x_3_26_1 +1 x_3_26_2 +0 x_3_26_3 +1 x_3_13_0_sb -1 x_3_13_1_sb +0 x_3_13_2_sb -1 x_3_13_3_sb +0 p0_3_13 +0 p1_3_13 >= -1
+0 x_3_26_0 -1 x_3_26_1 +0 x_3_26_2 -1 x_3_26_3 +0 x_3_13_0_sb +1 x_3_13_1_sb +0 x_3_13_2_sb +1 x_3_13_3_sb +0 p0_3_13 +1 p1_3_13 >= -1
+0 x_3_26_0 +1 x_3_26_1 +0 x_3_26_2 +1 x_3_26_3 +0 x_3_13_0_sb -1 x_3_13_1_sb +0 x_3_13_2_sb -1 x_3_13_3_sb +0 p0_3_13 +1 p1_3_13 >= -1
+1 x_3_26_0 -1 x_3_26_1 +1 x_3_26_2 -1 x_3_26_3 +1 x_3_13_0_sb +0 x_3_13_1_sb +0 x_3_13_2_sb +0 x_3_13_3_sb +0 p0_3_13 +0 p1_3_13 >= -1
+1 x_3_26_0 +0 x_3_26_1 +0 x_3_26_2 +0 x_3_26_3 +1 x_3_13_0_sb -1 x_3_13_1_sb +1 x_3_13_2_sb -1 x_3_13_3_sb +0 p0_3_13 +0 p1_3_13 >= -1
+0 x_3_26_0 -1 x_3_26_1 +0 x_3_26_2 -1 x_3_26_3 +1 x_3_13_0_sb -1 x_3_13_1_sb -1 x_3_13_2_sb -1 x_3_13_3_sb +0 p0_3_13 +0 p1_3_13 >= -4
+1 x_3_26_0 +0 x_3_26_1 +0 x_3_26_2 +1 x_3_26_3 +0 x_3_13_0_sb -1 x_3_13_1_sb -1 x_3_13_2_sb +1 x_3_13_3_sb +0 p0_3_13 -1 p1_3_13 >= -2
+0 x_3_26_0 +0 x_3_26_1 -1 x_3_26_2 +1 x_3_26_3 -1 x_3_13_0_sb +1 x_3_13_1_sb +0 x_3_13_2_sb -1 x_3_13_3_sb +0 p0_3_13 -1 p1_3_13 >= -3
+0 x_3_26_0 +1 x_3_26_1 +0 x_3_26_2 +1 x_3_26_3 -1 x_3_13_0_sb -1 x_3_13_1_sb +0 x_3_13_2_sb +1 x_3_13_3_sb +0 p0_3_13 -1 p1_3_13 >= -2
-1 x_3_26_0 +1 x_3_26_1 +0 x_3_26_2 -1 x_3_26_3 +0 x_3_13_0_sb +0 x_3_13_1_sb -1 x_3_13_2_sb +1 x_3_13_3_sb +0 p0_3_13 -1 p1_3_13 >= -3
-1 x_3_26_0 +0 x_3_26_1 +0 x_3_26_2 +0 x_3_26_3 -1 x_3_13_0_sb +1 x_3_13_1_sb +0 x_3_13_2_sb -1 x_3_13_3_sb +0 p0_3_13 -1 p1_3_13 >= -3
+0 x_3_26_0 +0 x_3_26_1 -1 x_3_26_2 +0 x_3_26_3 +1 x_3_13_0_sb +1 x_3_13_1_sb +0 x_3_13_2_sb +1 x_3_13_3_sb +0 p0_3_13 +0 p1_3_13 >= 0
+0 x_3_28_0 +0 x_3_28_1 +0 x_3_28_2 +0 x_3_28_3 +0 x_3_14_0_sb +0 x_3_14_1_sb +0 x_3_14_2_sb +0 x_3_14_3_sb -1 p0_3_14 -1 p1_3_14 >= -1
+0 x_3_28_0 +0 x_3_28_1 +0 x_3_28_2 +0 x_3_28_3 +0 x_3_14_0_sb +0 x_3_14_1_sb +0 x_3_14_2_sb -1 x_3_14_3_sb +1 p0_3_14 +1 p1_3_14 >= 0
+0 x_3_28_0 +0 x_3_28_1 +0 x_3_28_2 +0 x_3_28_3 +0 x_3_14_0_sb -1 x_3_14_1_sb +0 x_3_14_2_sb +0 x_3_14_3_sb +1 p0_3_14 +1 p1_3_14 >= 0
+0 x_3_28_0 +0 x_3_28_1 +0 x_3_28_2 +0 x_3_28_3 -1 x_3_14_0_sb +0 x_3_14_1_sb +0 x_3_14_2_sb +0 x_3_14_3_sb +1 p0_3_14 +1 p1_3_14 >= 0
+0 x_3_28_0 +0 x_3_28_1 +0 x_3_28_2 +0 x_3_28_3 +1 x_3_14_0_sb +1 x_3_14_1_sb +1 x_3_14_2_sb +1 x_3_14_3_sb +0 p0_3_14 -1 p1_3_14 >= 0
+0 x_3_28_0 +0 x_3_28_1 +0 x_3_28_2 -1 x_3_28_3 +1 x_3_14_0_sb +1 x_3_14_1_sb +0 x_3_14_2_sb +1 x_3_14_3_sb +0 p0_3_14 +1 p1_3_14 >= 0
-1 x_3_28_0 +0 x_3_28_1 -1 x_3_28_2 +0 x_3_28_3 +1 x_3_14_0_sb +0 x_3_14_1_sb +0 x_3_14_2_sb +1 x_3_14_3_sb +0 p0_3_14 -1 p1_3_14 >= -2
+1 x_3_28_0 +0 x_3_28_1 +1 x_3_28_2 +0 x_3_28_3 +1 x_3_14_0_sb +0 x_3_14_1_sb +1 x_3_14_2_sb +0 x_3_14_3_sb +0 p0_3_14 -1 p1_3_14 >= 0
+0 x_3_28_0 +0 x_3_28_1 +0 x_3_28_2 +1 x_3_28_3 +0 x_3_14_0_sb +1 x_3_14_1_sb -1 x_3_14_2_sb -1 x_3_14_3_sb +0 p0_3_14 -1 p1_3_14 >= -2
-1 x_3_28_0 +0 x_3_28_1 +0 x_3_28_2 -1 x_3_28_3 -1 x_3_14_0_sb +0 x_3_14_1_sb +0 x_3_14_2_sb +1 x_3_14_3_sb +0 p0_3_14 -1 p1_3_14 >= -3
+0 x_3_28_0 +0 x_3_28_1 +0 x_3_28_2 +1 x_3_28_3 -1 x_3_14_0_sb -1 x_3_14_1_sb -1 x_3_14_2_sb +0 x_3_14_3_sb +0 p0_3_14 -1 p1_3_14 >= -3
+1 x_3_28_0 +1 x_3_28_1 +0 x_3_28_2 +1 x_3_28_3 +0 x_3_14_0_sb +0 x_3_14_1_sb +0 x_3_14_2_sb +0 x_3_14_3_sb -1 p0_3_14 +0 p1_3_14 >= 0
+0 x_3_28_0 +0 x_3_28_1 +1 x_3_28_2 +1 x_3_28_3 +0 x_3_14_0_sb -1 x_3_14_1_sb +1 x_3_14_2_sb +0 x_3_14_3_sb +0 p0_3_14 -1 p1_3_14 >= -1
+0 x_3_28_0 +1 x_3_28_1 +0 x_3_28_2 -1 x_3_28_3 -1 x_3_14_0_sb +0 x_3_14_1_sb -1 x_3_14_2_sb +0 x_3_14_3_sb +0 p0_3_14 -1 p1_3_14 >= -3
+0 x_3_28_0 +1 x_3_28_1 +1 x_3_28_2 +0 x_3_28_3 +0 x_3_14_0_sb +0 x_3_14_1_sb +1 x_3_14_2_sb -1 x_3_14_3_sb +0 p0_3_14 -1 p1_3_14 >= -1
-1 x_3_28_0 +0 x_3_28_1 -1 x_3_28_2 +0 x_3_28_3 -1 x_3_14_0_sb +0 x_3_14_1_sb +1 x_3_14_2_sb +0 x_3_14_3_sb +0 p0_3_14 -1 p1_3_14 >= -3
+0 x_3_28_0 -1 x_3_28_1 -1 x_3_28_2 +0 x_3_28_3 +0 x_3_14_0_sb +1 x_3_14_1_sb +0 x_3_14_2_sb +1 x_3_14_3_sb +0 p0_3_14 -1 p1_3_14 >= -2
+0 x_3_28_0 -1 x_3_28_1 +0 x_3_28_2 +0 x_3_28_3 +1 x_3_14_0_sb +1 x_3_14_1_sb +0 x_3_14_2_sb +1 x_3_14_3_sb +0 p0_3_14 +1 p1_3_14 >= 0
-1 x_3_28_0 -1 x_3_28_1 +0 x_3_28_2 +1 x_3_28_3 +0 x_3_14_0_sb +1 x_3_14_1_sb +0 x_3_14_2_sb +1 x_3_14_3_sb +0 p0_3_14 -1 p1_3_14 >= -2
+0 x_3_28_0 -1 x_3_28_1 +0 x_3_28_2 +0 x_3_28_3 +1 x_3_14_0_sb +0 x_3_14_1_sb +1 x_3_14_2_sb +1 x_3_14_3_sb +0 p0_3_14 -1 p1_3_14 >= -1
-1 x_3_28_0 +0 x_3_28_1 -1 x_3_28_2 +0 x_3_28_3 +1 x_3_14_0_sb +1 x_3_14_1_sb +0 x_3_14_2_sb +0 x_3_14_3_sb +0 p0_3_14 -1 p1_3_14 >= -2
+0 x_3_28_0 +1 x_3_28_1 -1 x_3_28_2 -1 x_3_28_3 +0 x_3_14_0_sb +0 x_3_14_1_sb +0 x_3_14_2_sb +1 x_3_14_3_sb +0 p0_3_14 -1 p1_3_14 >= -2
-1 x_3_28_0 -1 x_3_28_1 +0 x_3_28_2 -1 x_3_28_3 +0 x_3_14_0_sb +1 x_3_14_1_sb +0 x_3_14_2_sb -1 x_3_14_3_sb +0 p0_3_14 -1 p1_3_14 >= -4
-1 x_3_28_0 +1 x_3_28_1 +0 x_3_28_2 +1 x_3_28_3 +0 x_3_14_0_sb +1 x_3_14_1_sb +0 x_3_14_2_sb +1 x_3_14_3_sb +0 p0_3_14 +1 p1_3_14 >= 0
+0 x_3_28_0 +0 x_3_28_1 +0 x_3_28_2 +0 x_3_28_3 +1 x_3_14_0_sb -1 x_3_14_1_sb +0 x_3_14_2_sb -1 x_3_14_3_sb +0 p0_3_14 +1 p1_3_14 >= -1
+1 x_3_28_0 +0 x_3_28_1 +1 x_3_28_2 +0 x_3_28_3 +1 x_3_14_0_sb -1 x_3_14_1_sb +0 x_3_14_2_sb +0 x_3_14_3_sb +0 p0_3_14 -1 p1_3_14 >= -1
+0 x_3_28_0 +1 x_3_28_1 +0 x_3_28_2 +1 x_3_28_3 +0 x_3_14_0_sb -1 x_3_14_1_sb -1 x_3_14_2_sb +0 x_3_14_3_sb +0 p0_3_14 -1 p1_3_14 >= -2
+1 x_3_28_0 -1 x_3_28_1 +0 x_3_28_2 -1 x_3_28_3 +0 x_3_14_0_sb +0 x_3_14_1_sb +1 x_3_14_2_sb +0 x_3_14_3_sb +0 p0_3_14 +0 p1_3_14 >= -1
+1 x_3_28_0 -1 x_3_28_1 -1 x_3_28_2 +0 x_3_28_3 +0 x_3_14_0_sb +0 x_3_14_1_sb +1 x_3_14_2_sb -1 x_3_14_3_sb +0 p0_3_14 -1 p1_3_14 >= -3
+1 x_3_28_0 -1 x_3_28_1 +0 x_3_28_2 -1 x_3_28_3 +0 x_3_14_0_sb +0 x_3_14_1_sb +0 x_3_14_2_sb +0 x_3_14_3_sb +0 p0_3_14 +1 p1_3_14 >= -1
+1 x_3_28_0 +0 x_3_28_1 +0 x_3_28_2 +0 x_3_28_3 -1 x_3_14_0_sb +1 x_3_14_1_sb +0 x_3_14_2_sb -1 x_3_14_3_sb +0 p0_3_14 +1 p1_3_14 >= -1
+1 x_3_28_0 +0 x_3_28_1 +0 x_3_28_2 +0 x_3_28_3 -1 x_3_14_0_sb -1 x_3_14_1_sb +0 x_3_14_2_sb +1 x_3_14_3_sb +0 p0_3_14 +1 p1_3_14 >= -1
-1 x_3_28_0 -1 x_3_28_1 +0 x_3_28_2 +1 x_3_28_3 +1 x_3_14_0_sb +0 x_3_14_1_sb +0 x_3_14_2_sb +0 x_3_14_3_sb +0 p0_3_14 +1 p1_3_14 >= -1
-1 x_3_28_0 +1 x_3_28_1 +0 x_3_28_2 -1 x_3_28_3 +1 x_3_14_0_sb +0 x_3_14_1_sb +0 x_3_14_2_sb +0 x_3_14_3_sb +0 p0_3_14 +1 p1_3_14 >= -1
+0 x_3_28_0 -1 x_3_28_1 +0 x_3_28_2 -1 x_3_28_3 +0 x_3_14_0_sb -1 x_3_14_1_sb +0 x_3_14_2_sb -1 x_3_14_3_sb +0 p0_3_14 +1 p1_3_14 >= -3
+1 x_3_28_0 +1 x_3_28_1 +0 x_3_28_2 +1 x_3_28_3 +0 x_3_14_0_sb +0 x_3_14_1_sb -1 x_3_14_2_sb +0 x_3_14_3_sb +0 p0_3_14 +0 p1_3_14 >= 0
-1 x_3_28_0 +0 x_3_28_1 +1 x_3_28_2 -1 x_3_28_3 +0 x_3_14_0_sb -1 x_3_14_1_sb -1 x_3_14_2_sb +0 x_3_14_3_sb +0 p0_3_14 -1 p1_3_14 >= -4
+1 x_3_28_0 +1 x_3_28_1 +0 x_3_28_2 -1 x_3_28_3 +1 x_3_14_0_sb +1 x_3_14_1_sb +0 x_3_14_2_sb -1 x_3_14_3_sb +0 p0_3_14 -1 p1_3_14 >= -2
+1 x_3_28_0 +0 x_3_28_1 +1 x_3_28_2 +0 x_3_28_3 +0 x_3_14_0_sb +1 x_3_14_1_sb +1 x_3_14_2_sb +1 x_3_14_3_sb +0 p0_3_14 -1 p1_3_14 >= 0
+1 x_3_28_0 +0 x_3_28_1 -1 x_3_28_2 -1 x_3_28_3 -1 x_3_14_0_sb -1 x_3_14_1_sb +0 x_3_14_2_sb -1 x_3_14_3_sb +0 p0_3_14 -1 p1_3_14 >= -5
+0 x_3_28_0 +0 x_3_28_1 +1 x_3_28_2 +1 x_3_28_3 -1 x_3_14_0_sb +0 x_3_14_1_sb -1 x_3_14_2_sb +0 x_3_14_3_sb +0 p0_3_14 -1 p1_3_14 >= -2
+0 x_3_28_0 +0 x_3_28_1 +1 x_3_28_2 +0 x_3_28_3 +1 x_3_14_0_sb -1 x_3_14_1_sb +0 x_3_14_2_sb -1 x_3_14_3_sb +0 p0_3_14 +0 p1_3_14 >= -1
+0 x_3_28_0 -1 x_3_28_1 +0 x_3_28_2 -1 x_3_28_3 +0 x_3_14_0_sb +1 x_3_14_1_sb +0 x_3_14_2_sb +1 x_3_14_3_sb +0 p0_3_14 +1 p1_3_14 >= -1
+0 x_3_28_0 +1 x_3_28_1 +0 x_3_28_2 +1 x_3_28_3 +0 x_3_14_0_sb -1 x_3_14_1_sb +0 x_3_14_2_sb -1 x_3_14_3_sb +0 p0_3_14 +1 p1_3_14 >= -1
+1 x_3_28_0 -1 x_3_28_1 +1 x_3_28_2 -1 x_3_28_3 +1 x_3_14_0_sb +0 x_3_14_1_sb +0 x_3_14_2_sb +0 x_3_14_3_sb +0 p0_3_14 +0 p1_3_14 >= -1
+1 x_3_28_0 +0 x_3_28_1 +0 x_3_28_2 +0 x_3_28_3 +1 x_3_14_0_sb -1 x_3_14_1_sb +1 x_3_14_2_sb -1 x_3_14_3_sb +0 p0_3_14 +0 p1_3_14 >= -1
+0 x_3_28_0 -1 x_3_28_1 +0 x_3_28_2 -1 x_3_28_3 +1 x_3_14_0_sb -1 x_3_14_1_sb -1 x_3_14_2_sb -1 x_3_14_3_sb +0 p0_3_14 +0 p1_3_14 >= -4
+1 x_3_28_0 +0 x_3_28_1 +0 x_3_28_2 +1 x_3_28_3 +0 x_3_14_0_sb -1 x_3_14_1_sb -1 x_3_14_2_sb +1 x_3_14_3_sb +0 p0_3_14 -1 p1_3_14 >= -2
+0 x_3_28_0 +0 x_3_28_1 -1 x_3_28_2 +1 x_3_28_3 -1 x_3_14_0_sb +1 x_3_14_1_sb +0 x_3_14_2_sb -1 x_3_14_3_sb +0 p0_3_14 -1 p1_3_14 >= -3
+0 x_3_28_0 +1 x_3_28_1 +0 x_3_28_2 +1 x_3_28_3 -1 x_3_14_0_sb -1 x_3_14_1_sb +0 x_3_14_2_sb +1 x_3_14_3_sb +0 p0_3_14 -1 p1_3_14 >= -2
-1 x_3_28_0 +1 x_3_28_1 +0 x_3_28_2 -1 x_3_28_3 +0 x_3_14_0_sb +0 x_3_14_1_sb -1 x_3_14_2_sb +1 x_3_14_3_sb +0 p0_3_14 -1 p1_3_14 >= -3
-1 x_3_28_0 +0 x_3_28_1 +0 x_3_28_2 +0 x_3_28_3 -1 x_3_14_0_sb +1 x_3_14_1_sb +0 x_3_14_2_sb -1 x_3_14_3_sb +0 p0_3_14 -1 p1_3_14 >= -3
+0 x_3_28_0 +0 x_3_28_1 -1 x_3_28_2 +0 x_3_28_3 +1 x_3_14_0_sb +1 x_3_14_1_sb +0 x_3_14_2_sb +1 x_3_14_3_sb +0 p0_3_14 +0 p1_3_14 >= 0
+0 x_3_30_0 +0 x_3_30_1 +0 x_3_30_2 +0 x_3_30_3 +0 x_3_15_0_sb +0 x_3_15_1_sb +0 x_3_15_2_sb +0 x_3_15_3_sb -1 p0_3_15 -1 p1_3_15 >= -1
+0 x_3_30_0 +0 x_3_30_1 +0 x_3_30_2 +0 x_3_30_3 +0 x_3_15_0_sb +0 x_3_15_1_sb +0 x_3_15_2_sb -1 x_3_15_3_sb +1 p0_3_15 +1 p1_3_15 >= 0
+0 x_3_30_0 +0 x_3_30_1 +0 x_3_30_2 +0 x_3_30_3 +0 x_3_15_0_sb -1 x_3_15_1_sb +0 x_3_15_2_sb +0 x_3_15_3_sb +1 p0_3_15 +1 p1_3_15 >= 0
+0 x_3_30_0 +0 x_3_30_1 +0 x_3_30_2 +0 x_3_30_3 -1 x_3_15_0_sb +0 x_3_15_1_sb +0 x_3_15_2_sb +0 x_3_15_3_sb +1 p0_3_15 +1 p1_3_15 >= 0
+0 x_3_30_0 +0 x_3_30_1 +0 x_3_30_2 +0 x_3_30_3 +1 x_3_15_0_sb +1 x_3_15_1_sb +1 x_3_15_2_sb +1 x_3_15_3_sb +0 p0_3_15 -1 p1_3_15 >= 0
+0 x_3_30_0 +0 x_3_30_1 +0 x_3_30_2 -1 x_3_30_3 +1 x_3_15_0_sb +1 x_3_15_1_sb +0 x_3_15_2_sb +1 x_3_15_3_sb +0 p0_3_15 +1 p1_3_15 >= 0
-1 x_3_30_0 +0 x_3_30_1 -1 x_3_30_2 +0 x_3_30_3 +1 x_3_15_0_sb +0 x_3_15_1_sb +0 x_3_15_2_sb +1 x_3_15_3_sb +0 p0_3_15 -1 p1_3_15 >= -2
+1 x_3_30_0 +0 x_3_30_1 +1 x_3_30_2 +0 x_3_30_3 +1 x_3_15_0_sb +0 x_3_15_1_sb +1 x_3_15_2_sb +0 x_3_15_3_sb +0 p0_3_15 -1 p1_3_15 >= 0
+0 x_3_30_0 +0 x_3_30_1 +0 x_3_30_2 +1 x_3_30_3 +0 x_3_15_0_sb +1 x_3_15_1_sb -1 x_3_15_2_sb -1 x_3_15_3_sb +0 p0_3_15 -1 p1_3_15 >= -2
-1 x_3_30_0 +0 x_3_30_1 +0 x_3_30_2 -1 x_3_30_3 -1 x_3_15_0_sb +0 x_3_15_1_sb +0 x_3_15_2_sb +1 x_3_15_3_sb +0 p0_3_15 -1 p1_3_15 >= -3
+0 x_3_30_0 +0 x_3_30_1 +0 x_3_30_2 +1 x_3_30_3 -1 x_3_15_0_sb -1 x_3_15_1_sb -1 x_3_15_2_sb +0 x_3_15_3_sb +0 p0_3_15 -1 p1_3_15 >= -3
+1 x_3_30_0 +1 x_3_30_1 +0 x_3_30_2 +1 x_3_30_3 +0 x_3_15_0_sb +0 x_3_15_1_sb +0 x_3_15_2_sb +0 x_3_15_3_sb -1 p0_3_15 +0 p1_3_15 >= 0
+0 x_3_30_0 +0 x_3_30_1 +1 x_3_30_2 +1 x_3_30_3 +0 x_3_15_0_sb -1 x_3_15_1_sb +1 x_3_15_2_sb +0 x_3_15_3_sb +0 p0_3_15 -1 p1_3_15 >= -1
+0 x_3_30_0 +1 x_3_30_1 +0 x_3_30_2 -1 x_3_30_3 -1 x_3_15_0_sb +0 x_3_15_1_sb -1 x_3_15_2_sb +0 x_3_15_3_sb +0 p0_3_15 -1 p1_3_15 >= -3
+0 x_3_30_0 +1 x_3_30_1 +1 x_3_30_2 +0 x_3_30_3 +0 x_3_15_0_sb +0 x_3_15_1_sb +1 x_3_15_2_sb -1 x_3_15_3_sb +0 p0_3_15 -1 p1_3_15 >= -1
-1 x_3_30_0 +0 x_3_30_1 -1 x_3_30_2 +0 x_3_30_3 -1 x_3_15_0_sb +0 x_3_15_1_sb +1 x_3_15_2_sb +0 x_3_15_3_sb +0 p0_3_15 -1 p1_3_15 >= -3
+0 x_3_30_0 -1 x_3_30_1 -1 x_3_30_2 +0 x_3_30_3 +0 x_3_15_0_sb +1 x_3_15_1_sb +0 x_3_15_2_sb +1 x_3_15_3_sb +0 p0_3_15 -1 p1_3_15 >= -2
+0 x_3_30_0 -1 x_3_30_1 +0 x_3_30_2 +0 x_3_30_3 +1 x_3_15_0_sb +1 x_3_15_1_sb +0 x_3_15_2_sb +1 x_3_15_3_sb +0 p0_3_15 +1 p1_3_15 >= 0
-1 x_3_30_0 -1 x_3_30_1 +0 x_3_30_2 +1 x_3_30_3 +0 x_3_15_0_sb +1 x_3_15_1_sb +0 x_3_15_2_sb +1 x_3_15_3_sb +0 p0_3_15 -1 p1_3_15 >= -2
+0 x_3_30_0 -1 x_3_30_1 +0 x_3_30_2 +0 x_3_30_3 +1 x_3_15_0_sb +0 x_3_15_1_sb +1 x_3_15_2_sb +1 x_3_15_3_sb +0 p0_3_15 -1 p1_3_15 >= -1
-1 x_3_30_0 +0 x_3_30_1 -1 x_3_30_2 +0 x_3_30_3 +1 x_3_15_0_sb +1 x_3_15_1_sb +0 x_3_15_2_sb +0 x_3_15_3_sb +0 p0_3_15 -1 p1_3_15 >= -2
+0 x_3_30_0 +1 x_3_30_1 -1 x_3_30_2 -1 x_3_30_3 +0 x_3_15_0_sb +0 x_3_15_1_sb +0 x_3_15_2_sb +1 x_3_15_3_sb +0 p0_3_15 -1 p1_3_15 >= -2
-1 x_3_30_0 -1 x_3_30_1 +0 x_3_30_2 -1 x_3_30_3 +0 x_3_15_0_sb +1 x_3_15_1_sb +0 x_3_15_2_sb -1 x_3_15_3_sb +0 p0_3_15 -1 p1_3_15 >= -4
-1 x_3_30_0 +1 x_3_30_1 +0 x_3_30_2 +1 x_3_30_3 +0 x_3_15_0_sb +1 x_3_15_1_sb +0 x_3_15_2_sb +1 x_3_15_3_sb +0 p0_3_15 +1 p1_3_15 >= 0
+0 x_3_30_0 +0 x_3_30_1 +0 x_3_30_2 +0 x_3_30_3 +1 x_3_15_0_sb -1 x_3_15_1_sb +0 x_3_15_2_sb -1 x_3_15_3_sb +0 p0_3_15 +1 p1_3_15 >= -1
+1 x_3_30_0 +0 x_3_30_1 +1 x_3_30_2 +0 x_3_30_3 +1 x_3_15_0_sb -1 x_3_15_1_sb +0 x_3_15_2_sb +0 x_3_15_3_sb +0 p0_3_15 -1 p1_3_15 >= -1
+0 x_3_30_0 +1 x_3_30_1 +0 x_3_30_2 +1 x_3_30_3 +0 x_3_15_0_sb -1 x_3_15_1_sb -1 x_3_15_2_sb +0 x_3_15_3_sb +0 p0_3_15 -1 p1_3_15 >= -2
+1 x_3_30_0 -1 x_3_30_1 +0 x_3_30_2 -1 x_3_30_3 +0 x_3_15_0_sb +0 x_3_15_1_sb +1 x_3_15_2_sb +0 x_3_15_3_sb +0 p0_3_15 +0 p1_3_15 >= -1
+1 x_3_30_0 -1 x_3_30_1 -1 x_3_30_2 +0 x_3_30_3 +0 x_3_15_0_sb +0 x_3_15_1_sb +1 x_3_15_2_sb -1 x_3_15_3_sb +0 p0_3_15 -1 p1_3_15 >= -3
+1 x_3_30_0 -1 x_3_30_1 +0 x_3_30_2 -1 x_3_30_3 +0 x_3_15_0_sb +0 x_3_15_1_sb +0 x_3_15_2_sb +0 x_3_15_3_sb +0 p0_3_15 +1 p1_3_15 >= -1
+1 x_3_30_0 +0 x_3_30_1 +0 x_3_30_2 +0 x_3_30_3 -1 x_3_15_0_sb +1 x_3_15_1_sb +0 x_3_15_2_sb -1 x_3_15_3_sb +0 p0_3_15 +1 p1_3_15 >= -1
+1 x_3_30_0 +0 x_3_30_1 +0 x_3_30_2 +0 x_3_30_3 -1 x_3_15_0_sb -1 x_3_15_1_sb +0 x_3_15_2_sb +1 x_3_15_3_sb +0 p0_3_15 +1 p1_3_15 >= -1
-1 x_3_30_0 -1 x_3_30_1 +0 x_3_30_2 +1 x_3_30_3 +1 x_3_15_0_sb +0 x_3_15_1_sb +0 x_3_15_2_sb +0 x_3_15_3_sb +0 p0_3_15 +1 p1_3_15 >= -1
-1 x_3_30_0 +1 x_3_30_1 +0 x_3_30_2 -1 x_3_30_3 +1 x_3_15_0_sb +0 x_3_15_1_sb +0 x_3_15_2_sb +0 x_3_15_3_sb +0 p0_3_15 +1 p1_3_15 >= -1
+0 x_3_30_0 -1 x_3_30_1 +0 x_3_30_2 -1 x_3_30_3 +0 x_3_15_0_sb -1 x_3_15_1_sb +0 x_3_15_2_sb -1 x_3_15_3_sb +0 p0_3_15 +1 p1_3_15 >= -3
+1 x_3_30_0 +1 x_3_30_1 +0 x_3_30_2 +1 x_3_30_3 +0 x_3_15_0_sb +0 x_3_15_1_sb -1 x_3_15_2_sb +0 x_3_15_3_sb +0 p0_3_15 +0 p1_3_15 >= 0
-1 x_3_30_0 +0 x_3_30_1 +1 x_3_30_2 -1 x_3_30_3 +0 x_3_15_0_sb -1 x_3_15_1_sb -1 x_3_15_2_sb +0 x_3_15_3_sb +0 p0_3_15 -1 p1_3_15 >= -4
+1 x_3_30_0 +1 x_3_30_1 +0 x_3_30_2 -1 x_3_30_3 +1 x_3_15_0_sb +1 x_3_15_1_sb +0 x_3_15_2_sb -1 x_3_15_3_sb +0 p0_3_15 -1 p1_3_15 >= -2
+1 x_3_30_0 +0 x_3_30_1 +1 x_3_30_2 +0 x_3_30_3 +0 x_3_15_0_sb +1 x_3_15_1_sb +1 x_3_15_2_sb +1 x_3_15_3_sb +0 p0_3_15 -1 p1_3_15 >= 0
+1 x_3_30_0 +0 x_3_30_1 -1 x_3_30_2 -1 x_3_30_3 -1 x_3_15_0_sb -1 x_3_15_1_sb +0 x_3_15_2_sb -1 x_3_15_3_sb +0 p0_3_15 -1 p1_3_15 >= -5
+0 x_3_30_0 +0 x_3_30_1 +1 x_3_30_2 +1 x_3_30_3 -1 x_3_15_0_sb +0 x_3_15_1_sb -1 x_3_15_2_sb +0 x_3_15_3_sb +0 p0_3_15 -1 p1_3_15 >= -2
+0 x_3_30_0 +0 x_3_30_1 +1 x_3_30_2 +0 x_3_30_3 +1 x_3_15_0_sb -1 x_3_15_1_sb +0 x_3_15_2_sb -1 x_3_15_3_sb +0 p0_3_15 +0 p1_3_15 >= -1
+0 x_3_30_0 -1 x_3_30_1 +0 x_3_30_2 -1 x_3_30_3 +0 x_3_15_0_sb +1 x_3_15_1_sb +0 x_3_15_2_sb +1 x_3_15_3_sb +0 p0_3_15 +1 p1_3_15 >= -1
+0 x_3_30_0 +1 x_3_30_1 +0 x_3_30_2 +1 x_3_30_3 +0 x_3_15_0_sb -1 x_3_15_1_sb +0 x_3_15_2_sb -1 x_3_15_3_sb +0 p0_3_15 +1 p1_3_15 >= -1
+1 x_3_30_0 -1 x_3_30_1 +1 x_3_30_2 -1 x_3_30_3 +1 x_3_15_0_sb +0 x_3_15_1_sb +0 x_3_15_2_sb +0 x_3_15_3_sb +0 p0_3_15 +0 p1_3_15 >= -1
+1 x_3_30_0 +0 x_3_30_1 +0 x_3_30_2 +0 x_3_30_3 +1 x_3_15_0_sb -1 x_3_15_1_sb +1 x_3_15_2_sb -1 x_3_15_3_sb +0 p0_3_15 +0 p1_3_15 >= -1
+0 x_3_30_0 -1 x_3_30_1 +0 x_3_30_2 -1 x_3_30_3 +1 x_3_15_0_sb -1 x_3_15_1_sb -1 x_3_15_2_sb -1 x_3_15_3_sb +0 p0_3_15 +0 p1_3_15 >= -4
+1 x_3_30_0 +0 x_3_30_1 +0 x_3_30_2 +1 x_3_30_3 +0 x_3_15_0_sb -1 x_3_15_1_sb -1 x_3_15_2_sb +1 x_3_15_3_sb +0 p0_3_15 -1 p1_3_15 >= -2
+0 x_3_30_0 +0 x_3_30_1 -1 x_3_30_2 +1 x_3_30_3 -1 x_3_15_0_sb +1 x_3_15_1_sb +0 x_3_15_2_sb -1 x_3_15_3_sb +0 p0_3_15 -1 p1_3_15 >= -3
+0 x_3_30_0 +1 x_3_30_1 +0 x_3_30_2 +1 x_3_30_3 -1 x_3_15_0_sb -1 x_3_15_1_sb +0 x_3_15_2_sb +1 x_3_15_3_sb +0 p0_3_15 -1 p1_3_15 >= -2
-1 x_3_30_0 +1 x_3_30_1 +0 x_3_30_2 -1 x_3_30_3 +0 x_3_15_0_sb +0 x_3_15_1_sb -1 x_3_15_2_sb +1 x_3_15_3_sb +0 p0_3_15 -1 p1_3_15 >= -3
-1 x_3_30_0 +0 x_3_30_1 +0 x_3_30_2 +0 x_3_30_3 -1 x_3_15_0_sb +1 x_3_15_1_sb +0 x_3_15_2_sb -1 x_3_15_3_sb +0 p0_3_15 -1 p1_3_15 >= -3
+0 x_3_30_0 +0 x_3_30_1 -1 x_3_30_2 +0 x_3_30_3 +1 x_3_15_0_sb +1 x_3_15_1_sb +0 x_3_15_2_sb +1 x_3_15_3_sb +0 p0_3_15 +0 p1_3_15 >= 0
-1 x_3_1_0 -1 x_3_0_0_sb -1 x_4_6_0 >= -2
+1 x_3_1_0 +1 x_3_0_0_sb -1 x_4_6_0 >= 0
+1 x_3_1_0 -1 x_3_0_0_sb +1 x_4_6_0 >= 0
-1 x_3_1_0 +1 x_3_0_0_sb +1 x_4_6_0 >= 0
-1 x_3_1_1 -1 x_3_0_1_sb -1 x_4_6_1 >= -2
+1 x_3_1_1 +1 x_3_0_1_sb -1 x_4_6_1 >= 0
+1 x_3_1_1 -1 x_3_0_1_sb +1 x_4_6_1 >= 0
-1 x_3_1_1 +1 x_3_0_1_sb +1 x_4_6_1 >= 0
-1 x_3_1_2 -1 x_3_0_2_sb -1 x_4_6_2 >= -2
+1 x_3_1_2 +1 x_3_0_2_sb -1 x_4_6_2 >= 0
+1 x_3_1_2 -1 x_3_0_2_sb +1 x_4_6_2 >= 0
-1 x_3_1_2 +1 x_3_0_2_sb +1 x_4_6_2 >= 0
-1 x_3_1_3 -1 x_3_0_3_sb -1 x_4_6_3 >= -2
+1 x_3_1_3 +1 x_3_0_3_sb -1 x_4_6_3 >= 0
+1 x_3_1_3 -1 x_3_0_3_sb +1 x_4_6_3 >= 0
-1 x_3_1_3 +1 x_3_0_3_sb +1 x_4_6_3 >= 0
-1 x_3_3_0 -1 x_3_1_0_sb -1 x_4_14_0 >= -2
+1 x_3_3_0 +1 x_3_1_0_sb -1 x_4_14_0 >= 0
+1 x_3_3_0 -1 x_3_1_0_sb +1 x_4_14_0 >= 0
-1 x_3_3_0 +1 x_3_1_0_sb +1 x_4_14_0 >= 0
-1 x_3_3_1 -1 x_3_1_1_sb -1 x_4_14_1 >= -2
+1 x_3_3_1 +1 x_3_1_1_sb -1 x_4_14_1 >= 0
+1 x_3_3_1 -1 x_3_1_1_sb +1 x_4_14_1 >= 0
-1 x_3_3_1 +1 x_3_1_1_sb +1 x_4_14_1 >= 0
-1 x_3_3_2 -1 x_3_1_2_sb -1 x_4_14_2 >= -2
+1 x_3_3_2 +1 x_3_1_2_sb -1 x_4_14_2 >= 0
+1 x_3_3_2 -1 x_3_1_2_sb +1 x_4_14_2 >= 0
-1 x_3_3_2 +1 x_3_1_2_sb +1 x_4_14_2 >= 0
-1 x_3_3_3 -1 x_3_1_3_sb -1 x_4_14_3 >= -2
+1 x_3_3_3 +1 x_3_1_3_sb -1 x_4_14_3 >= 0
+1 x_3_3_3 -1 x_3_1_3_sb +1 x_4_14_3 >= 0
-1 x_3_3_3 +1 x_3_1_3_sb +1 x_4_14_3 >= 0
-1 x_3_5_0 -1 x_3_2_0_sb -1 x_4_12_0 >= -2
+1 x_3_5_0 +1 x_3_2_0_sb -1 x_4_12_0 >= 0
+1 x_3_5_0 -1 x_3_2_0_sb +1 x_4_12_0 >= 0
-1 x_3_5_0 +1 x_3_2_0_sb +1 x_4_12_0 >= 0
-1 x_3_5_1 -1 x_3_2_1_sb -1 x_4_12_1 >= -2
+1 x_3_5_1 +1 x_3_2_1_sb -1 x_4_12_1 >= 0
+1 x_3_5_1 -1 x_3_2_1_sb +1 x_4_12_1 >= 0
-1 x_3_5_1 +1 x_3_2_1_sb +1 x_4_12_1 >= 0
-1 x_3_5_2 -1 x_3_2_2_sb -1 x_4_12_2 >= -2
+1 x_3_5_2 +1 x_3_2_2_sb -1 x_4_12_2 >= 0
+1 x_3_5_2 -1 x_3_2_2_sb +1 x_4_12_2 >= 0
-1 x_3_5_2 +1 x_3_2_2_sb +1 x_4_12_2 >= 0
-1 x_3_5_3 -1 x_3_2_3_sb -1 x_4_12_3 >= -2
+1 x_3_5_3 +1 x_3_2_3_sb -1 x_4_12_3 >= 0
+1 x_3_5_3 -1 x_3_2_3_sb +1 x_4_12_3 >= 0
-1 x_3_5_3 +1 x_3_2_3_sb +1 x_4_12_3 >= 0
-1 x_3_7_0 -1 x_3_3_0_sb -1 x_4_8_0 >= -2
+1 x_3_7_0 +1 x_3_3_0_sb -1 x_4_8_0 >= 0
+1 x_3_7_0 -1 x_3_3_0_sb +1 x_4_8_0 >= 0
-1 x_3_7_0 +1 x_3_3_0_sb +1 x_4_8_0 >= 0
-1 x_3_7_1 -1 x_3_3_1_sb -1 x_4_8_1 >= -2
+1 x_3_7_1 +1 x_3_3_1_sb -1 x_4_8_1 >= 0
+1 x_3_7_1 -1 x_3_3_1_sb +1 x_4_8_1 >= 0
-1 x_3_7_1 +1 x_3_3_1_sb +1 x_4_8_1 >= 0
-1 x_3_7_2 -1 x_3_3_2_sb -1 x_4_8_2 >= -2
+1 x_3_7_2 +1 x_3_3_2_sb -1 x_4_8_2 >= 0
+1 x_3_7_2 -1 x_3_3_2_sb +1 x_4_8_2 >= 0
-1 x_3_7_2 +1 x_3_3_2_sb +1 x_4_8_2 >= 0
-1 x_3_7_3 -1 x_3_3_3_sb -1 x_4_8_3 >= -2
+1 x_3_7_3 +1 x_3_3_3_sb -1 x_4_8_3 >= 0
+1 x_3_7_3 -1 x_3_3_3_sb +1 x_4_8_3 >= 0
-1 x_3_7_3 +1 x_3_3_3_sb +1 x_4_8_3 >= 0
-1 x_3_9_0 -1 x_3_4_0_sb -1 x_4_2_0 >= -2
+1 x_3_9_0 +1 x_3_4_0_sb -1 x_4_2_0 >= 0
+1 x_3_9_0 -1 x_3_4_0_sb +1 x_4_2_0 >= 0
-1 x_3_9_0 +1 x_3_4_0_sb +1 x_4_2_0 >= 0
-1 x_3_9_1 -1 x_3_4_1_sb -1 x_4_2_1 >= -2
+1 x_3_9_1 +1 x_3_4_1_sb -1 x_4_2_1 >= 0
+1 x_3_9_1 -1 x_3_4_1_sb +1 x_4_2_1 >= 0
-1 x_3_9_1 +1 x_3_4_1_sb +1 x_4_2_1 >= 0
-1 x_3_9_2 -1 x_3_4_2_sb -1 x_4_2_2 >= -2
+1 x_3_9_2 +1 x_3_4_2_sb -1 x_4_2_2 >= 0
+1 x_3_9_2 -1 x_3_4_2_sb +1 x_4_2_2 >= 0
-1 x_3_9_2 +1 x_3_4_2_sb +1 x_4_2_2 >= 0
-1 x_3_9_3 -1 x_3_4_3_sb -1 x_4_2_3 >= -2
+1 x_3_9_3 +1 x_3_4_3_sb -1 x_4_2_3 >= 0
+1 x_3_9_3 -1 x_3_4_3_sb +1 x_4_2_3 >= 0
-1 x_3_9_3 +1 x_3_4_3_sb +1 x_4_2_3 >= 0
-1 x_3_11_0 -1 x_3_5_0_sb -1 x_4_0_0 >= -2
+1 x_3_11_0 +1 x_3_5_0_sb -1 x_4_0_0 >= 0
+1 x_3_11_0 -1 x_3_5_0_sb +1 x_4_0_0 >= 0
-1 x_3_11_0 +1 x_3_5_0_sb +1 x_4_0_0 >= 0
-1 x_3_11_1 -1 x_3_5_1_sb -1 x_4_0_1 >= -2
+1 x_3_11_1 +1 x_3_5_1_sb -1 x_4_0_1 >= 0
+1 x_3_11_1 -1 x_3_5_1_sb +1 x_4_0_1 >= 0
-1 x_3_11_1 +1 x_3_5_1_sb +1 x_4_0_1 >= 0
-1 x_3_11_2 -1 x_3_5_2_sb -1 x_4_0_2 >= -2
+1 x_3_11_2 +1 x_3_5_2_sb -1 x_4_0_2 >= 0
+1 x_3_11_2 -1 x_3_5_2_sb +1 x_4_0_2 >= 0
-1 x_3_11_2 +1 x_3_5_2_sb +1 x_4_0_2 >= 0
-1 x_3_11_3 -1 x_3_5_3_sb -1 x_4_0_3 >= -2
+1 x_3_11_3 +1 x_3_5_3_sb -1 x_4_0_3 >= 0
+1 x_3_11_3 -1 x_3_5_3_sb +1 x_4_0_3 >= 0
-1 x_3_11_3 +1 x_3_5_3_sb +1 x_4_0_3 >= 0
-1 x_3_13_0 -1 x_3_6_0_sb -1 x_4_4_0 >= -2
+1 x_3_13_0 +1 x_3_6_0_sb -1 x_4_4_0 >= 0
+1 x_3_13_0 -1 x_3_6_0_sb +1 x_4_4_0 >= 0
-1 x_3_13_0 +1 x_3_6_0_sb +1 x_4_4_0 >= 0
-1 x_3_13_1 -1 x_3_6_1_sb -1 x_4_4_1 >= -2
+1 x_3_13_1 +1 x_3_6_1_sb -1 x_4_4_1 >= 0
+1 x_3_13_1 -1 x_3_6_1_sb +1 x_4_4_1 >= 0
-1 x_3_13_1 +1 x_3_6_1_sb +1 x_4_4_1 >= 0
-1 x_3_13_2 -1 x_3_6_2_sb -1 x_4_4_2 >= -2
+1 x_3_13_2 +1 x_3_6_2_sb -1 x_4_4_2 >= 0
+1 x_3_13_2 -1 x_3_6_2_sb +1 x_4_4_2 >= 0
-1 x_3_13_2 +1 x_3_6_2_sb +1 x_4_4_2 >= 0
-1 x_3_13_3 -1 x_3_6_3_sb -1 x_4_4_3 >= -2
+1 x_3_13_3 +1 x_3_6_3_sb -1 x_4_4_3 >= 0
+1 x_3_13_3 -1 x_3_6_3_sb +1 x_4_4_3 >= 0
-1 x_3_13_3 +1 x_3_6_3_sb +1 x_4_4_3 >= 0
-1 x_3_15_0 -1 x_3_7_0_sb -1 x_4_10_0 >= -2
+1 x_3_15_0 +1 x_3_7_0_sb -1 x_4_10_0 >= 0
+1 x_3_15_0 -1 x_3_7_0_sb +1 x_4_10_0 >= 0
-1 x_3_15_0 +1 x_3_7_0_sb +1 x_4_10_0 >= 0
-1 x_3_15_1 -1 x_3_7_1_sb -1 x_4_10_1 >= -2
+1 x_3_15_1 +1 x_3_7_1_sb -1 x_4_10_1 >= 0
+1 x_3_15_1 -1 x_3_7_1_sb +1 x_4_10_1 >= 0
-1 x_3_15_1 +1 x_3_7_1_sb +1 x_4_10_1 >= 0
-1 x_3_15_2 -1 x_3_7_2_sb -1 x_4_10_2 >= -2
+1 x_3_15_2 +1 x_3_7_2_sb -1 x_4_10_2 >= 0
+1 x_3_15_2 -1 x_3_7_2_sb +1 x_4_10_2 >= 0
-1 x_3_15_2 +1 x_3_7_2_sb +1 x_4_10_2 >= 0
-1 x_3_15_3 -1 x_3_7_3_sb -1 x_4_10_3 >= -2
+1 x_3_15_3 +1 x_3_7_3_sb -1 x_4_10_3 >= 0
+1 x_3_15_3 -1 x_3_7_3_sb +1 x_4_10_3 >= 0
-1 x_3_15_3 +1 x_3_7_3_sb +1 x_4_10_3 >= 0
-1 x_3_17_0 -1 x_3_8_0_sb -1 x_4_22_0 >= -2
+1 x_3_17_0 +1 x_3_8_0_sb -1 x_4_22_0 >= 0
+1 x_3_17_0 -1 x_3_8_0_sb +1 x_4_22_0 >= 0
-1 x_3_17_0 +1 x_3_8_0_sb +1 x_4_22_0 >= 0
-1 x_3_17_1 -1 x_3_8_1_sb -1 x_4_22_1 >= -2
+1 x_3_17_1 +1 x_3_8_1_sb -1 x_4_22_1 >= 0
+1 x_3_17_1 -1 x_3_8_1_sb +1 x_4_22_1 >= 0
-1 x_3_17_1 +1 x_3_8_1_sb +1 x_4_22_1 >= 0
-1 x_3_17_2 -1 x_3_8_2_sb -1 x_4_22_2 >= -2
+1 x_3_17_2 +1 x_3_8_2_sb -1 x_4_22_2 >= 0
+1 x_3_17_2 -1 x_3_8_2_sb +1 x_4_22_2 >= 0
-1 x_3_17_2 +1 x_3_8_2_sb +1 x_4_22_2 >= 0
-1 x_3_17_3 -1 x_3_8_3_sb -1 x_4_22_3 >= -2
+1 x_3_17_3 +1 x_3_8_3_sb -1 x_4_22_3 >= 0
+1 x_3_17_3 -1 x_3_8_3_sb +1 x_4_22_3 >= 0
-1 x_3_17_3 +1 x_3_8_3_sb +1 x_4_22_3 >= 0
-1 x_3_19_0 -1 x_3_9_0_sb -1 x_4_30_0 >= -2
+1 x_3_19_0 +1 x_3_9_0_sb -1 x_4_30_0 >= 0
+1 x_3_19_0 -1 x_3_9_0_sb +1 x_4_30_0 >= 0
-1 x_3_19_0 +1 x_3_9_0_sb +1 x_4_30_0 >= 0
-1 x_3_19_1 -1 x_3_9_1_sb -1 x_4_30_1 >= -2
+1 x_3_19_1 +1 x_3_9_1_sb -1 x_4_30_1 >= 0
+1 x_3_19_1 -1 x_3_9_1_sb +1 x_4_30_1 >= 0
-1 x_3_19_1 +1 x_3_9_1_sb +1 x_4_30_1 >= 0
-1 x_3_19_2 -1 x_3_9_2_sb -1 x_4_30_2 >= -2
+1 x_3_19_2 +1 x_3_9_2_sb -1 x_4_30_2 >= 0
+1 x_3_19_2 -1 x_3_9_2_sb +1 x_4_30_2 >= 0
-1 x_3_19_2 +1 x_3_9_2_sb +1 x_4_30_2 >= 0
-1 x_3_19_3 -1 x_3_9_3_sb -1 x_4_30_3 >= -2
+1 x_3_19_3 +1 x_3_9_3_sb -1 x_4_30_3 >= 0
+1 x_3_19_3 -1 x_3_9_3_sb +1 x_4_30_3 >= 0
-1 x_3_19_3 +1 x_3_9_3_sb +1 x_4_30_3 >= 0
-1 x_3_21_0 -1 x_3_10_0_sb -1 x_4_28_0 >= -2
+1 x_3_21_0 +1 x_3_10_0_sb -1 x_4_28_0 >= 0
+1 x_3_21_0 -1 x_3_10_0_sb +1 x_4_28_0 >= 0
-1 x_3_21_0 +1 x_3_10_0_sb +1 x_4_28_0 >= 0
-1 x_3_21_1 -1 x_3_10_1_sb -1 x_4_28_1 >= -2
+1 x_3_21_1 +1 x_3_10_1_sb -1 x_4_28_1 >= 0
+1 x_3_21_1 -1 x_3_10_1_sb +1 x_4_28_1 >= 0
-1 x_3_21_1 +1 x_3_10_1_sb +1 x_4_28_1 >= 0
-1 x_3_21_2 -1 x_3_10_2_sb -1 x_4_28_2 >= -2
+1 x_3_21_2 +1 x_3_10_2_sb -1 x_4_28_2 >= 0
+1 x_3_21_2 -1 x_3_10_2_sb +1 x_4_28_2 >= 0
-1 x_3_21_2 +1 x_3_10_2_sb +1 x_4_28_2 >= 0
-1 x_3_21_3 -1 x_3_10_3_sb -1 x_4_28_3 >= -2
+1 x_3_21_3 +1 x_3_10_3_sb -1 x_4_28_3 >= 0
+1 x_3_21_3 -1 x_3_10_3_sb +1 x_4_28_3 >= 0
-1 x_3_21_3 +1 x_3_10_3_sb +1 x_4_28_3 >= 0
-1 x_3_23_0 -1 x_3_11_0_sb -1 x_4_24_0 >= -2
+1 x_3_23_0 +1 x_3_11_0_sb -1 x_4_24_0 >= 0
+1 x_3_23_0 -1 x_3_11_0_sb +1 x_4_24_0 >= 0
-1 x_3_23_0 +1 x_3_11_0_sb +1 x_4_24_0 >= 0
-1 x_3_23_1 -1 x_3_11_1_sb -1 x_4_24_1 >= -2
+1 x_3_23_1 +1 x_3_11_1_sb -1 x_4_24_1 >= 0
+1 x_3_23_1 -1 x_3_11_1_sb +1 x_4_24_1 >= 0
-1 x_3_23_1 +1 x_3_11_1_sb +1 x_4_24_1 >= 0
-1 x_3_23_2 -1 x_3_11_2_sb -1 x_4_24_2 >= -2
+1 x_3_23_2 +1 x_3_11_2_sb -1 x_4_24_2 >= 0
+1 x_3_23_2 -1 x_3_11_2_sb +1 x_4_24_2 >= 0
-1 x_3_23_2 +1 x_3_11_2_sb +1 x_4_24_2 >= 0
-1 x_3_23_3 -1 x_3_11_3_sb -1 x_4_24_3 >= -2
+1 x_3_23_3 +1 x_3_11_3_sb -1 x_4_24_3 >= 0
+1 x_3_23_3 -1 x_3_11_3_sb +1 x_4_24_3 >= 0
-1 x_3_23_3 +1 x_3_11_3_sb +1 x_4_24_3 >= 0
-1 x_3_25_0 -1 x_3_12_0_sb -1 x_4_18_0 >= -2
+1 x_3_25_0 +1 x_3_12_0_sb -1 x_4_18_0 >= 0
+1 x_3_25_0 -1 x_3_12_0_sb +1 x_4_18_0 >= 0
-1 x_3_25_0 +1 x_3_12_0_sb +1 x_4_18_0 >= 0
-1 x_3_25_1 -1 x_3_12_1_sb -1 x_4_18_1 >= -2
+1 x_3_25_1 +1 x_3_12_1_sb -1 x_4_18_1 >= 0
+1 x_3_25_1 -1 x_3_12_1_sb +1 x_4_18_1 >= 0
-1 x_3_25_1 +1 x_3_12_1_sb +1 x_4_18_1 >= 0
-1 x_3_25_2 -1 x_3_12_2_sb -1 x_4_18_2 >= -2
+1 x_3_25_2 +1 x_3_12_2_sb -1 x_4_18_2 >= 0
+1 x_3_25_2 -1 x_3_12_2_sb +1 x_4_18_2 >= 0
-1 x_3_25_2 +1 x_3_12_2_sb +1 x_4_18_2 >= 0
-1 x_3_25_3 -1 x_3_12_3_sb -1 x_4_18_3 >= -2
+1 x_3_25_3 +1 x_3_12_3_sb -1 x_4_18_3 >= 0
+1 x_3_25_3 -1 x_3_12_3_sb +1 x_4_18_3 >= 0
-1 x_3_25_3 +1 x_3_12_3_sb +1 x_4_18_3 >= 0
-1 x_3_27_0 -1 x_3_13_0_sb -1 x_4_16_0 >= -2
+1 x_3_27_0 +1 x_3_13_0_sb -1 x_4_16_0 >= 0
+1 x_3_27_0 -1 x_3_13_0_sb +1 x_4_16_0 >= 0
-1 x_3_27_0 +1 x_3_13_0_sb +1 x_4_16_0 >= 0
-1 x_3_27_1 -1 x_3_13_1_sb -1 x_4_16_1 >= -2
+1 x_3_27_1 +1 x_3_13_1_sb -1 x_4_16_1 >= 0
+1 x_3_27_1 -1 x_3_13_1_sb +1 x_4_16_1 >= 0
-1 x_3_27_1 +1 x_3_13_1_sb +1 x_4_16_1 >= 0
-1 x_3_27_2 -1 x_3_13_2_sb -1 x_4_16_2 >= -2
+1 x_3_27_2 +1 x_3_13_2_sb -1 x_4_16_2 >= 0
+1 x_3_27_2 -1 x_3_13_2_sb +1 x_4_16_2 >= 0
-1 x_3_27_2 +1 x_3_13_2_sb +1 x_4_16_2 >= 0
-1 x_3_27_3 -1 x_3_13_3_sb -1 x_4_16_3 >= -2
+1 x_3_27_3 +1 x_3_13_3_sb -1 x_4_16_3 >= 0
+1 x_3_27_3 -1 x_3_13_3_sb +1 x_4_16_3 >= 0
-1 x_3_27_3 +1 x_3_13_3_sb +1 x_4_16_3 >= 0
-1 x_3_29_0 -1 x_3_14_0_sb -1 x_4_20_0 >= -2
+1 x_3_29_0 +1 x_3_14_0_sb -1 x_4_20_0 >= 0
+1 x_3_29_0 -1 x_3_14_0_sb +1 x_4_20_0 >= 0
-1 x_3_29_0 +1 x_3_14_0_sb +1 x_4_20_0 >= 0
-1 x_3_29_1 -1 x_3_14_1_sb -1 x_4_20_1 >= -2
+1 x_3_29_1 +1 x_3_14_1_sb -1 x_4_20_1 >= 0
+1 x_3_29_1 -1 x_3_14_1_sb +1 x_4_20_1 >= 0
-1 x_3_29_1 +1 x_3_14_1_sb +1 x_4_20_1 >= 0
-1 x_3_29_2 -1 x_3_14_2_sb -1 x_4_20_2 >= -2
+1 x_3_29_2 +1 x_3_14_2_sb -1 x_4_20_2 >= 0
+1 x_3_29_2 -1 x_3_14_2_sb +1 x_4_20_2 >= 0
-1 x_3_29_2 +1 x_3_14_2_sb +1 x_4_20_2 >= 0
-1 x_3_29_3 -1 x_3_14_3_sb -1 x_4_20_3 >= -2
+1 x_3_29_3 +1 x_3_14_3_sb -1 x_4_20_3 >= 0
+1 x_3_29_3 -1 x_3_14_3_sb +1 x_4_20_3 >= 0
-1 x_3_29_3 +1 x_3_14_3_sb +1 x_4_20_3 >= 0
-1 x_3_31_0 -1 x_3_15_0_sb -1 x_4_26_0 >= -2
+1 x_3_31_0 +1 x_3_15_0_sb -1 x_4_26_0 >= 0
+1 x_3_31_0 -1 x_3_15_0_sb +1 x_4_26_0 >= 0
-1 x_3_31_0 +1 x_3_15_0_sb +1 x_4_26_0 >= 0
-1 x_3_31_1 -1 x_3_15_1_sb -1 x_4_26_1 >= -2
+1 x_3_31_1 +1 x_3_15_1_sb -1 x_4_26_1 >= 0
+1 x_3_31_1 -1 x_3_15_1_sb +1 x_4_26_1 >= 0
-1 x_3_31_1 +1 x_3_15_1_sb +1 x_4_26_1 >= 0
-1 x_3_31_2 -1 x_3_15_2_sb -1 x_4_26_2 >= -2
+1 x_3_31_2 +1 x_3_15_2_sb -1 x_4_26_2 >= 0
+1 x_3_31_2 -1 x_3_15_2_sb +1 x_4_26_2 >= 0
-1 x_3_31_2 +1 x_3_15_2_sb +1 x_4_26_2 >= 0
-1 x_3_31_3 -1 x_3_15_3_sb -1 x_4_26_3 >= -2
+1 x_3_31_3 +1 x_3_15_3_sb -1 x_4_26_3 >= 0
+1 x_3_31_3 -1 x_3_15_3_sb +1 x_4_26_3 >= 0
-1 x_3_31_3 +1 x_3_15_3_sb +1 x_4_26_3 >= 0
x_4_31_0 - x_3_0_0 = 0
x_4_31_1 - x_3_0_1 = 0
x_4_31_2 - x_3_0_2 = 0
x_4_31_3 - x_3_0_3 = 0
x_4_29_0 - x_3_2_0 = 0
x_4_29_1 - x_3_2_1 = 0
x_4_29_2 - x_3_2_2 = 0
x_4_29_3 - x_3_2_3 = 0
x_4_1_0 - x_3_4_0 = 0
x_4_1_1 - x_3_4_1 = 0
x_4_1_2 - x_3_4_2 = 0
x_4_1_3 - x_3_4_3 = 0
x_4_21_0 - x_3_6_0 = 0
x_4_21_1 - x_3_6_1 = 0
x_4_21_2 - x_3_6_2 = 0
x_4_21_3 - x_3_6_3 = 0
x_4_27_0 - x_3_8_0 = 0
x_4_27_1 - x_3_8_1 = 0
x_4_27_2 - x_3_8_2 = 0
x_4_27_3 - x_3_8_3 = 0
x_4_3_0 - x_3_10_0 = 0
x_4_3_1 - x_3_10_1 = 0
x_4_3_2 - x_3_10_2 = 0
x_4_3_3 - x_3_10_3 = 0
x_4_25_0 - x_3_12_0 = 0
x_4_25_1 - x_3_12_1 = 0
x_4_25_2 - x_3_12_2 = 0
x_4_25_3 - x_3_12_3 = 0
x_4_23_0 - x_3_14_0 = 0
x_4_23_1 - x_3_14_1 = 0
x_4_23_2 - x_3_14_2 = 0
x_4_23_3 - x_3_14_3 = 0
x_4_15_0 - x_3_16_0 = 0
x_4_15_1 - x_3_16_1 = 0
x_4_15_2 - x_3_16_2 = 0
x_4_15_3 - x_3_16_3 = 0
x_4_13_0 - x_3_18_0 = 0
x_4_13_1 - x_3_18_1 = 0
x_4_13_2 - x_3_18_2 = 0
x_4_13_3 - x_3_18_3 = 0
x_4_17_0 - x_3_20_0 = 0
x_4_17_1 - x_3_20_1 = 0
x_4_17_2 - x_3_20_2 = 0
x_4_17_3 - x_3_20_3 = 0
x_4_5_0 - x_3_22_0 = 0
x_4_5_1 - x_3_22_1 = 0
x_4_5_2 - x_3_22_2 = 0
x_4_5_3 - x_3_22_3 = 0
x_4_11_0 - x_3_24_0 = 0
x_4_11_1 - x_3_24_1 = 0
x_4_11_2 - x_3_24_2 = 0
x_4_11_3 - x_3_24_3 = 0
x_4_19_0 - x_3_26_0 = 0
x_4_19_1 - x_3_26_1 = 0
x_4_19_2 - x_3_26_2 = 0
x_4_19_3 - x_3_26_3 = 0
x_4_9_0 - x_3_28_0 = 0
x_4_9_1 - x_3_28_1 = 0
x_4_9_2 - x_3_28_2 = 0
x_4_9_3 - x_3_28_3 = 0
x_4_7_0 - x_3_30_0 = 0
x_4_7_1 - x_3_30_1 = 0
x_4_7_2 - x_3_30_2 = 0
x_4_7_3 - x_3_30_3 = 0
+0 x_4_0_0 +0 x_4_0_1 +0 x_4_0_2 +0 x_4_0_3 +0 x_4_0_0_sb +0 x_4_0_1_sb +0 x_4_0_2_sb +0 x_4_0_3_sb -1 p0_4_0 -1 p1_4_0 >= -1
+0 x_4_0_0 +0 x_4_0_1 +0 x_4_0_2 +0 x_4_0_3 +0 x_4_0_0_sb +0 x_4_0_1_sb +0 x_4_0_2_sb -1 x_4_0_3_sb +1 p0_4_0 +1 p1_4_0 >= 0
+0 x_4_0_0 +0 x_4_0_1 +0 x_4_0_2 +0 x_4_0_3 +0 x_4_0_0_sb -1 x_4_0_1_sb +0 x_4_0_2_sb +0 x_4_0_3_sb +1 p0_4_0 +1 p1_4_0 >= 0
+0 x_4_0_0 +0 x_4_0_1 +0 x_4_0_2 +0 x_4_0_3 -1 x_4_0_0_sb +0 x_4_0_1_sb +0 x_4_0_2_sb +0 x_4_0_3_sb +1 p0_4_0 +1 p1_4_0 >= 0
+0 x_4_0_0 +0 x_4_0_1 +0 x_4_0_2 +0 x_4_0_3 +1 x_4_0_0_sb +1 x_4_0_1_sb +1 x_4_0_2_sb +1 x_4_0_3_sb +0 p0_4_0 -1 p1_4_0 >= 0
+0 x_4_0_0 +0 x_4_0_1 +0 x_4_0_2 -1 x_4_0_3 +1 x_4_0_0_sb +1 x_4_0_1_sb +0 x_4_0_2_sb +1 x_4_0_3_sb +0 p0_4_0 +1 p1_4_0 >= 0
-1 x_4_0_0 +0 x_4_0_1 -1 x_4_0_2 +0 x_4_0_3 +1 x_4_0_0_sb +0 x_4_0_1_sb +0 x_4_0_2_sb +1 x_4_0_3_sb +0 p0_4_0 -1 p1_4_0 >= -2
+1 x_4_0_0 +0 x_4_0_1 +1 x_4_0_2 +0 x_4_0_3 +1 x_4_0_0_sb +0 x_4_0_1_sb +1 x_4_0_2_sb +0 x_4_0_3_sb +0 p0_4_0 -1 p1_4_0 >= 0
+0 x_4_0_0 +0 x_4_0_1 +0 x_4_0_2 +1 x_4_0_3 +0 x_4_0_0_sb +1 x_4_0_1_sb -1 x_4_0_2_sb -1 x_4_0_3_sb +0 p0_4_0 -1 p1_4_0 >= -2
-1 x_4_0_0 +0 x_4_0_1 +0 x_4_0_2 -1 x_4_0_3 -1 x_4_0_0_sb +0 x_4_0_1_sb +0 x_4_0_2_sb +1 x_4_0_3_sb +0 p0_4_0 -1 p1_4_0 >= -3
+0 x_4_0_0 +0 x_4_0_1 +0 x_4_0_2 +1 x_4_0_3 -1 x_4_0_0_sb -1 x_4_0_1_sb -1 x_4_0_2_sb +0 x_4_0_3_sb +0 p0_4_0 -1 p1_4_0 >= -3
+1 x_4_0_0 +1 x_4_0_1 +0 x_4_0_2 +1 x_4_0_3 +0 x_4_0_0_sb +0 x_4_0_1_sb +0 x_4_0_2_sb +0 x_4_0_3_sb -1 p0_4_0 +0 p1_4_0 >= 0
+0 x_4_0_0 +0 x_4_0_1 +1 x_4_0_2 +1 x_4_0_3 +0 x_4_0_0_sb -1 x_4_0_1_sb +1 x_4_0_2_sb +0 x_4_0_3_sb +0 p0_4_0 -1 p1_4_0 >= -1
+0 x_4_0_0 +1 x_4_0_1 +0 x_4_0_2 -1 x_4_0_3 -1 x_4_0_0_sb +0 x_4_0_1_sb -1 x_4_0_2_sb +0 x_4_0_3_sb +0 p0_4_0 -1 p1_4_0 >= -3
+0 x_4_0_0 +1 x_4_0_1 +1 x_4_0_2 +0 x_4_0_3 +0 x_4_0_0_sb +0 x_4_0_1_sb +1 x_4_0_2_sb -1 x_4_0_3_sb +0 p0_4_0 -1 p1_4_0 >= -1
-1 x_4_0_0 +0 x_4_0_1 -1 x_4_0_2 +0 x_4_0_3 -1 x_4_0_0_sb +0 x_4_0_1_sb +1 x_4_0_2_sb +0 x_4_0_3_sb +0 p0_4_0 -1 p1_4_0 >= -3
+0 x_4_0_0 -1 x_4_0_1 -1 x_4_0_2 +0 x_4_0_3 +0 x_4_0_0_sb +1 x_4_0_1_sb +0 x_4_0_2_sb +1 x_4_0_3_sb +0 p0_4_0 -1 p1_4_0 >= -2
+0 x_4_0_0 -1 x_4_0_1 +0 x_4_0_2 +0 x_4_0_3 +1 x_4_0_0_sb +1 x_4_0_1_sb +0 x_4_0_2_sb +1 x_4_0_3_sb +0 p0_4_0 +1 p1_4_0 >= 0
-1 x_4_0_0 -1 x_4_0_1 +0 x_4_0_2 +1 x_4_0_3 +0 x_4_0_0_sb +1 x_4_0_1_sb +0 x_4_0_2_sb +1 x_4_0_3_sb +0 p0_4_0 -1 p1_4_0 >= -2
+0 x_4_0_0 -1 x_4_0_1 +0 x_4_0_2 +0 x_4_0_3 +1 x_4_0_0_sb +0 x_4_0_1_sb +1 x_4_0_2_sb +1 x_4_0_3_sb +0 p0_4_0 -1 p1_4_0 >= -1
-1 x_4_0_0 +0 x_4_0_1 -1 x_4_0_2 +0 x_4_0_3 +1 x_4_0_0_sb +1 x_4_0_1_sb +0 x_4_0_2_sb +0 x_4_0_3_sb +0 p0_4_0 -1 p1_4_0 >= -2
+0 x_4_0_0 +1 x_4_0_1 -1 x_4_0_2 -1 x_4_0_3 +0 x_4_0_0_sb +0 x_4_0_1_sb +0 x_4_0_2_sb +1 x_4_0_3_sb +0 p0_4_0 -1 p1_4_0 >= -2
-1 x_4_0_0 -1 x_4_0_1 +0 x_4_0_2 -1 x_4_0_3 +0 x_4_0_0_sb +1 x_4_0_1_sb +0 x_4_0_2_sb -1 x_4_0_3_sb +0 p0_4_0 -1 p1_4_0 >= -4
-1 x_4_0_0 +1 x_4_0_1 +0 x_4_0_2 +1 x_4_0_3 +0 x_4_0_0_sb +1 x_4_0_1_sb +0 x_4_0_2_sb +1 x_4_0_3_sb +0 p0_4_0 +1 p1_4_0 >= 0
+0 x_4_0_0 +0 x_4_0_1 +0 x_4_0_2 +0 x_4_0_3 +1 x_4_0_0_sb -1 x_4_0_1_sb +0 x_4_0_2_sb -1 x_4_0_3_sb +0 p0_4_0 +1 p1_4_0 >= -1
+1 x_4_0_0 +0 x_4_0_1 +1 x_4_0_2 +0 x_4_0_3 +1 x_4_0_0_sb -1 x_4_0_1_sb +0 x_4_0_2_sb +0 x_4_0_3_sb +0 p0_4_0 -1 p1_4_0 >= -1
+0 x_4_0_0 +1 x_4_0_1 +0 x_4_0_2 +1 x_4_0_3 +0 x_4_0_0_sb -1 x_4_0_1_sb -1 x_4_0_2_sb +0 x_4_0_3_sb +0 p0_4_0 -1 p1_4_0 >= -2
+1 x_4_0_0 -1 x_4_0_1 +0 x_4_0_2 -1 x_4_0_3 +0 x_4_0_0_sb +0 x_4_0_1_sb +1 x_4_0_2_sb +0 x_4_0_3_sb +0 p0_4_0 +0 p1_4_0 >= -1
+1 x_4_0_0 -1 x_4_0_1 -1 x_4_0_2 +0 x_4_0_3 +0 x_4_0_0_sb +0 x_4_0_1_sb +1 x_4_0_2_sb -1 x_4_0_3_sb +0 p0_4_0 -1 p1_4_0 >= -3
+1 x_4_0_0 -1 x_4_0_1 +0 x_4_0_2 -1 x_4_0_3 +0 x_4_0_0_sb +0 x_4_0_1_sb +0 x_4_0_2_sb +0 x_4_0_3_sb +0 p0_4_0 +1 p1_4_0 >= -1
+1 x_4_0_0 +0 x_4_0_1 +0 x_4_0_2 +0 x_4_0_3 -1 x_4_0_0_sb +1 x_4_0_1_sb +0 x_4_0_2_sb -1 x_4_0_3_sb +0 p0_4_0 +1 p1_4_0 >= -1
+1 x_4_0_0 +0 x_4_0_1 +0 x_4_0_2 +0 x_4_0_3 -1 x_4_0_0_sb -1 x_4_0_1_sb +0 x_4_0_2_sb +1 x_4_0_3_sb +0 p0_4_0 +1 p1_4_0 >= -1
-1 x_4_0_0 -1 x_4_0_1 +0 x_4_0_2 +1 x_4_0_3 +1 x_4_0_0_sb +0 x_4_0_1_sb +0 x_4_0_2_sb +0 x_4_0_3_sb +0 p0_4_0 +1 p1_4_0 >= -1
-1 x_4_0_0 +1 x_4_0_1 +0 x_4_0_2 -1 x_4_0_3 +1 x_4_0_0_sb +0 x_4_0_1_sb +0 x_4_0_2_sb +0 x_4_0_3_sb +0 p0_4_0 +1 p1_4_0 >= -1
+0 x_4_0_0 -1 x_4_0_1 +0 x_4_0_2 -1 x_4_0_3 +0 x_4_0_0_sb -1 x_4_0_1_sb +0 x_4_0_2_sb -1 x_4_0_3_sb +0 p0_4_0 +1 p1_4_0 >= -3
+1 x_4_0_0 +1 x_4_0_1 +0 x_4_0_2 +1 x_4_0_3 +0 x_4_0_0_sb +0 x_4_0_1_sb -1 x_4_0_2_sb +0 x_4_0_3_sb +0 p0_4_0 +0 p1_4_0 >= 0
-1 x_4_0_0 +0 x_4_0_1 +1 x_4_0_2 -1 x_4_0_3 +0 x_4_0_0_sb -1 x_4_0_1_sb -1 x_4_0_2_sb +0 x_4_0_3_sb +0 p0_4_0 -1 p1_4_0 >= -4
+1 x_4_0_0 +1 x_4_0_1 +0 x_4_0_2 -1 x_4_0_3 +1 x_4_0_0_sb +1 x_4_0_1_sb +0 x_4_0_2_sb -1 x_4_0_3_sb +0 p0_4_0 -1 p1_4_0 >= -2
+1 x_4_0_0 +0 x_4_0_1 +1 x_4_0_2 +0 x_4_0_3 +0 x_4_0_0_sb +1 x_4_0_1_sb +1 x_4_0_2_sb +1 x_4_0_3_sb +0 p0_4_0 -1 p1_4_0 >= 0
+1 x_4_0_0 +0 x_4_0_1 -1 x_4_0_2 -1 x_4_0_3 -1 x_4_0_0_sb -1 x_4_0_1_sb +0 x_4_0_2_sb -1 x_4_0_3_sb +0 p0_4_0 -1 p1_4_0 >= -5
+0 x_4_0_0 +0 x_4_0_1 +1 x_4_0_2 +1 x_4_0_3 -1 x_4_0_0_sb +0 x_4_0_1_sb -1 x_4_0_2_sb +0 x_4_0_3_sb +0 p0_4_0 -1 p1_4_0 >= -2
+0 x_4_0_0 +0 x_4_0_1 +1 x_4_0_2 +0 x_4_0_3 +1 x_4_0_0_sb -1 x_4_0_1_sb +0 x_4_0_2_sb -1 x_4_0_3_sb +0 p0_4_0 +0 p1_4_0 >= -1
+0 x_4_0_0 -1 x_4_0_1 +0 x_4_0_2 -1 x_4_0_3 +0 x_4_0_0_sb +1 x_4_0_1_sb +0 x_4_0_2_sb +1 x_4_0_3_sb +0 p0_4_0 +1 p1_4_0 >= -1
+0 x_4_0_0 +1 x_4_0_1 +0 x_4_0_2 +1 x_4_0_3 +0 x_4_0_0_sb -1 x_4_0_1_sb +0 x_4_0_2_sb -1 x_4_0_3_sb +0 p0_4_0 +1 p1_4_0 >= -1
+1 x_4_0_0 -1 x_4_0_1 +1 x_4_0_2 -1 x_4_0_3 +1 x_4_0_0_sb +0 x_4_0_1_sb +0 x_4_0_2_sb +0 x_4_0_3_sb +0 p0_4_0 +0 p1_4_0 >= -1
+1 x_4_0_0 +0 x_4_0_1 +0 x_4_0_2 +0 x_4_0_3 +1 x_4_0_0_sb -1 x_4_0_1_sb +1 x_4_0_2_sb -1 x_4_0_3_sb +0 p0_4_0 +0 p1_4_0 >= -1
+0 x_4_0_0 -1 x_4_0_1 +0 x_4_0_2 -1 x_4_0_3 +1 x_4_0_0_sb -1 x_4_0_1_sb -1 x_4_0_2_sb -1 x_4_0_3_sb +0 p0_4_0 +0 p1_4_0 >= -4
+1 x_4_0_0 +0 x_4_0_1 +0 x_4_0_2 +1 x_4_0_3 +0 x_4_0_0_sb -1 x_4_0_1_sb -1 x_4_0_2_sb +1 x_4_0_3_sb +0 p0_4_0 -1 p1_4_0 >= -2
+0 x_4_0_0 +0 x_4_0_1 -1 x_4_0_2 +1 x_4_0_3 -1 x_4_0_0_sb +1 x_4_0_1_sb +0 x_4_0_2_sb -1 x_4_0_3_sb +0 p0_4_0 -1 p1_4_0 >= -3
+0 x_4_0_0 +1 x_4_0_1 +0 x_4_0_2 +1 x_4_0_3 -1 x_4_0_0_sb -1 x_4_0_1_sb +0 x_4_0_2_sb +1 x_4_0_3_sb +0 p0_4_0 -1 p1_4_0 >= -2
-1 x_4_0_0 +1 x_4_0_1 +0 x_4_0_2 -1 x_4_0_3 +0 x_4_0_0_sb +0 x_4_0_1_sb -1 x_4_0_2_sb +1 x_4_0_3_sb +0 p0_4_0 -1 p1_4_0 >= -3
-1 x_4_0_0 +0 x_4_0_1 +0 x_4_0_2 +0 x_4_0_3 -1 x_4_0_0_sb +1 x_4_0_1_sb +0 x_4_0_2_sb -1 x_4_0_3_sb +0 p0_4_0 -1 p1_4_0 >= -3
+0 x_4_0_0 +0 x_4_0_1 -1 x_4_0_2 +0 x_4_0_3 +1 x_4_0_0_sb +1 x_4_0_1_sb +0 x_4_0_2_sb +1 x_4_0_3_sb +0 p0_4_0 +0 p1_4_0 >= 0
+0 x_4_2_0 +0 x_4_2_1 +0 x_4_2_2 +0 x_4_2_3 +0 x_4_1_0_sb +0 x_4_1_1_sb +0 x_4_1_2_sb +0 x_4_1_3_sb -1 p0_4_1 -1 p1_4_1 >= -1
+0 x_4_2_0 +0 x_4_2_1 +0 x_4_2_2 +0 x_4_2_3 +0 x_4_1_0_sb +0 x_4_1_1_sb +0 x_4_1_2_sb -1 x_4_1_3_sb +1 p0_4_1 +1 p1_4_1 >= 0
+0 x_4_2_0 +0 x_4_2_1 +0 x_4_2_2 +0 x_4_2_3 +0 x_4_1_0_sb -1 x_4_1_1_sb +0 x_4_1_2_sb +0 x_4_1_3_sb +1 p0_4_1 +1 p1_4_1 >= 0
+0 x_4_2_0 +0 x_4_2_1 +0 x_4_2_2 +0 x_4_2_3 -1 x_4_1_0_sb +0 x_4_1_1_sb +0 x_4_1_2_sb +0 x_4_1_3_sb +1 p0_4_1 +1 p1_4_1 >= 0
+0 x_4_2_0 +0 x_4_2_1 +0 x_4_2_2 +0 x_4_2_3 +1 x_4_1_0_sb +1 x_4_1_1_sb +1 x_4_1_2_sb +1 x_4_1_3_sb +0 p0_4_1 -1 p1_4_1 >= 0
+0 x_4_2_0 +0 x_4_2_1 +0 x_4_2_2 -1 x_4_2_3 +1 x_4_1_0_sb +1 x_4_1_1_sb +0 x_4_1_2_sb +1 x_4_1_3_sb +0 p0_4_1 +1 p1_4_1 >= 0
-1 x_4_2_0 +0 x_4_2_1 -1 x_4_2_2 +0 x_4_2_3 +1 x_4_1_0_sb +0 x_4_1_1_sb +0 x_4_1_2_sb +1 x_4_1_3_sb +0 p0_4_1 -1 p1_4_1 >= -2
+1 x_4_2_0 +0 x_4_2_1 +1 x_4_2_2 +0 x_4_2_3 +1 x_4_1_0_sb +0 x_4_1_1_sb +1 x_4_1_2_sb +0 x_4_1_3_sb +0 p0_4_1 -1 p1_4_1 >= 0
+0 x_4_2_0 +0 x_4_2_1 +0 x_4_2_2 +1 x_4_2_3 +0 x_4_1_0_sb +1 x_4_1_1_sb -1 x_4_1_2_sb -1 x_4_1_3_sb +0 p0_4_1 -1 p1_4_1 >= -2
-1 x_4_2_0 +0 x_4_2_1 +0 x_4_2_2 -1 x_4_2_3 -1 x_4_1_0_sb +0 x_4_1_1_sb +0 x_4_1_2_sb +1 x_4_1_3_sb +0 p0_4_1 -1 p1_4_1 >= -3
+0 x_4_2_0 +0 x_4_2_1 +0 x_4_2_2 +1 x_4_2_3 -1 x_4_1_0_sb -1 x_4_1_1_sb -1 x_4_1_2_sb +0 x_4_1_3_sb +0 p0_4_1 -1 p1_4_1 >= -3
+1 x_4_2_0 +1 x_4_2_1 +0 x_4_2_2 +1 x_4_2_3 +0 x_4_1_0_sb +0 x_4_1_1_sb +0 x_4_1_2_sb +0 x_4_1_3_sb -1 p0_4_1 +0 p1_4_1 >= 0
+0 x_4_2_0 +0 x_4_2_1 +1 x_4_2_2 +1 x_4_2_3 +0 x_4_1_0_sb -1 x_4_1_1_sb +1 x_4_1_2_sb +0 x_4_1_3_sb +0 p0_4_1 -1 p1_4_1 >= -1
+0 x_4_2_0 +1 x_4_2_1 +0 x_4_2_2 -1 x_4_2_3 -1 x_4_1_0_sb +0 x_4_1_1_sb -1 x_4_1_2_sb +0 x_4_1_3_sb +0 p0_4_1 -1 p1_4_1 >= -3
+0 x_4_2_0 +1 x_4_2_1 +1 x_4_2_2 +0 x_4_2_3 +0 x_4_1_0_sb +0 x_4_1_1_sb +1 x_4_1_2_sb -1 x_4_1_3_sb +0 p0_4_1 -1 p1_4_1 >= -1
-1 x_4_2_0 +0 x_4_2_1 -1 x_4_2_2 +0 x_4_2_3 -1 x_4_1_0_sb +0 x_4_1_1_sb +1 x_4_1_2_sb +0 x_4_1_3_sb +0 p0_4_1 -1 p1_4_1 >= -3
+0 x_4_2_0 -1 x_4_2_1 -1 x_4_2_2 +0 x_4_2_3 +0 x_4_1_0_sb +1 x_4_1_1_sb +0 x_4_1_2_sb +1 x_4_1_3_sb +0 p0_4_1 -1 p1_4_1 >= -2
+0 x_4_2_0 -1 x_4_2_1 +0 x_4_2_2 +0 x_4_2_3 +1 x_4_1_0_sb +1 x_4_1_1_sb +0 x_4_1_2_sb +1 x_4_1_3_sb +0 p0_4_1 +1 p1_4_1 >= 0
-1 x_4_2_0 -1 x_4_2_1 +0 x_4_2_2 +1 x_4_2_3 +0 x_4_1_0_sb +1 x_4_1_1_sb +0 x_4_1_2_sb +1 x_4_1_3_sb +0 p0_4_1 -1 p1_4_1 >= -2
+0 x_4_2_0 -1 x_4_2_1 +0 x_4_2_2 +0 x_4_2_3 +1 x_4_1_0_sb +0 x_4_1_1_sb +1 x_4_1_2_sb +1 x_4_1_3_sb +0 p0_4_1 -1 p1_4_1 >= -1
-1 x_4_2_0 +0 x_4_2_1 -1 x_4_2_2 +0 x_4_2_3 +1 x_4_1_0_sb +1 x_4_1_1_sb +0 x_4_1_2_sb +0 x_4_1_3_sb +0 p0_4_1 -1 p1_4_1 >= -2
+0 x_4_2_0 +1 x_4_2_1 -1 x_4_2_2 -1 x_4_2_3 +0 x_4_1_0_sb +0 x_4_1_1_sb +0 x_4_1_2_sb +1 x_4_1_3_sb +0 p0_4_1 -1 p1_4_1 >= -2
-1 x_4_2_0 -1 x_4_2_1 +0 x_4_2_2 -1 x_4_2_3 +0 x_4_1_0_sb +1 x_4_1_1_sb +0 x_4_1_2_sb -1 x_4_1_3_sb +0 p0_4_1 -1 p1_4_1 >= -4
-1 x_4_2_0 +1 x_4_2_1 +0 x_4_2_2 +1 x_4_2_3 +0 x_4_1_0_sb +1 x_4_1_1_sb +0 x_4_1_2_sb +1 x_4_1_3_sb +0 p0_4_1 +1 p1_4_1 >= 0
+0 x_4_2_0 +0 x_4_2_1 +0 x_4_2_2 +0 x_4_2_3 +1 x_4_1_0_sb -1 x_4_1_1_sb +0 x_4_1_2_sb -1 x_4_1_3_sb +0 p0_4_1 +1 p1_4_1 >= -1
+1 x_4_2_0 +0 x_4_2_1 +1 x_4_2_2 +0 x_4_2_3 +1 x_4_1_0_sb -1 x_4_1_1_sb +0 x_4_1_2_sb +0 x_4_1_3_sb +0 p0_4_1 -1 p1_4_1 >= -1
+0 x_4_2_0 +1 x_4_2_1 +0 x_4_2_2 +1 x_4_2_3 +0 x_4_1_0_sb -1 x_4_1_1_sb -1 x_4_1_2_sb +0 x_4_1_3_sb +0 p0_4_1 -1 p1_4_1 >= -2
+1 x_4_2_0 -1 x_4_2_1 +0 x_4_2_2 -1 x_4_2_3 +0 x_4_1_0_sb +0 x_4_1_1_sb +1 x_4_1_2_sb +0 x_4_1_3_sb +0 p0_4_1 +0 p1_4_1 >= -1
+1 x_4_2_0 -1 x_4_2_1 -1 x_4_2_2 +0 x_4_2_3 +0 x_4_1_0_sb +0 x_4_1_1_sb +1 x_4_1_2_sb -1 x_4_1_3_sb +0 p0_4_1 -1 p1_4_1 >= -3
+1 x_4_2_0 -1 x_4_2_1 +0 x_4_2_2 -1 x_4_2_3 +0 x_4_1_0_sb +0 x_4_1_1_sb +0 x_4_1_2_sb +0 x_4_1_3_sb +0 p0_4_1 +1 p1_4_1 >= -1
+1 x_4_2_0 +0 x_4_2_1 +0 x_4_2_2 +0 x_4_2_3 -1 x_4_1_0_sb +1 x_4_1_1_sb +0 x_4_1_2_sb -1 x_4_1_3_sb +0 p0_4_1 +1 p1_4_1 >= -1
+1 x_4_2_0 +0 x_4_2_1 +0 x_4_2_2 +0 x_4_2_3 -1 x_4_1_0_sb -1 x_4_1_1_sb +0 x_4_1_2_sb +1 x_4_1_3_sb +0 p0_4_1 +1 p1_4_1 >= -1
-1 x_4_2_0 -1 x_4_2_1 +0 x_4_2_2 +1 x_4_2_3 +1 x_4_1_0_sb +0 x_4_1_1_sb +0 x_4_1_2_sb +0 x_4_1_3_sb +0 p0_4_1 +1 p1_4_1 >= -1
-1 x_4_2_0 +1 x_4_2_1 +0 x_4_2_2 -1 x_4_2_3 +1 x_4_1_0_sb +0 x_4_1_1_sb +0 x_4_1_2_sb +0 x_4_1_3_sb +0 p0_4_1 +1 p1_4_1 >= -1
+0 x_4_2_0 -1 x_4_2_1 +0 x_4_2_2 -1 x_4_2_3 +0 x_4_1_0_sb -1 x_4_1_1_sb +0 x_4_1_2_sb -1 x_4_1_3_sb +0 p0_4_1 +1 p1_4_1 >= -3
+1 x_4_2_0 +1 x_4_2_1 +0 x_4_2_2 +1 x_4_2_3 +0 x_4_1_0_sb +0 x_4_1_1_sb -1 x_4_1_2_sb +0 x_4_1_3_sb +0 p0_4_1 +0 p1_4_1 >= 0
-1 x_4_2_0 +0 x_4_2_1 +1 x_4_2_2 -1 x_4_2_3 +0 x_4_1_0_sb -1 x_4_1_1_sb -1 x_4_1_2_sb +0 x_4_1_3_sb +0 p0_4_1 -1 p1_4_1 >= -4
+1 x_4_2_0 +1 x_4_2_1 +0 x_4_2_2 -1 x_4_2_3 +1 x_4_1_0_sb +1 x_4_1_1_sb +0 x_4_1_2_sb -1 x_4_1_3_sb +0 p0_4_1 -1 p1_4_1 >= -2
+1 x_4_2_0 +0 x_4_2_1 +1 x_4_2_2 +0 x_4_2_3 +0 x_4_1_0_sb +1 x_4_1_1_sb +1 x_4_1_2_sb +1 x_4_1_3_sb +0 p0_4_1 -1 p1_4_1 >= 0
+1 x_4_2_0 +0 x_4_2_1 -1 x_4_2_2 -1 x_4_2_3 -1 x_4_1_0_sb -1 x_4_1_1_sb +0 x_4_1_2_sb -1 x_4_1_3_sb +0 p0_4_1 -1 p1_4_1 >= -5
+0 x_4_2_0 +0 x_4_2_1 +1 x_4_2_2 +1 x_4_2_3 -1 x_4_1_0_sb +0 x_4_1_1_sb -1 x_4_1_2_sb +0 x_4_1_3_sb +0 p0_4_1 -1 p1_4_1 >= -2
+0 x_4_2_0 +0 x_4_2_1 +1 x_4_2_2 +0 x_4_2_3 +1 x_4_1_0_sb -1 x_4_1_1_sb +0 x_4_1_2_sb -1 x_4_1_3_sb +0 p0_4_1 +0 p1_4_1 >= -1
+0 x_4_2_0 -1 x_4_2_1 +0 x_4_2_2 -1 x_4_2_3 +0 x_4_1_0_sb +1 x_4_1_1_sb +0 x_4_1_2_sb +1 x_4_1_3_sb +0 p0_4_1 +1 p1_4_1 >= -1
+0 x_4_2_0 +1 x_4_2_1 +0 x_4_2_2 +1 x_4_2_3 +0 x_4_1_0_sb -1 x_4_1_1_sb +0 x_4_1_2_sb -1 x_4_1_3_sb +0 p0_4_1 +1 p1_4_1 >= -1
+1 x_4_2_0 -1 x_4_2_1 +1 x_4_2_2 -1 x_4_2_3 +1 x_4_1_0_sb +0 x_4_1_1_sb +0 x_4_1_2_sb +0 x_4_1_3_sb +0 p0_4_1 +0 p1_4_1 >= -1
+1 x_4_2_0 +0 x_4_2_1 +0 x_4_2_2 +0 x_4_2_3 +1 x_4_1_0_sb -1 x_4_1_1_sb +1 x_4_1_2_sb -1 x_4_1_3_sb +0 p0_4_1 +0 p1_4_1 >= -1
+0 x_4_2_0 -1 x_4_2_1 +0 x_4_2_2 -1 x_4_2_3 +1 x_4_1_0_sb -1 x_4_1_1_sb -1 x_4_1_2_sb -1 x_4_1_3_sb +0 p0_4_1 +0 p1_4_1 >= -4
+1 x_4_2_0 +0 x_4_2_1 +0 x_4_2_2 +1 x_4_2_3 +0 x_4_1_0_sb -1 x_4_1_1_sb -1 x_4_1_2_sb +1 x_4_1_3_sb +0 p0_4_1 -1 p1_4_1 >= -2
+0 x_4_2_0 +0 x_4_2_1 -1 x_4_2_2 +1 x_4_2_3 -1 x_4_1_0_sb +1 x_4_1_1_sb +0 x_4_1_2_sb -1 x_4_1_3_sb +0 p0_4_1 -1 p1_4_1 >= -3
+0 x_4_2_0 +1 x_4_2_1 +0 x_4_2_2 +1 x_4_2_3 -1 x_4_1_0_sb -1 x_4_1_1_sb +0 x_4_1_2_sb +1 x_4_1_3_sb +0 p0_4_1 -1 p1_4_1 >= -2
-1 x_4_2_0 +1 x_4_2_1 +0 x_4_2_2 -1 x_4_2_3 +0 x_4_1_0_sb +0 x_4_1_1_sb -1 x_4_1_2_sb +1 x_4_1_3_sb +0 p0_4_1 -1 p1_4_1 >= -3
-1 x_4_2_0 +0 x_4_2_1 +0 x_4_2_2 +0 x_4_2_3 -1 x_4_1_0_sb +1 x_4_1_1_sb +0 x_4_1_2_sb -1 x_4_1_3_sb +0 p0_4_1 -1 p1_4_1 >= -3
+0 x_4_2_0 +0 x_4_2_1 -1 x_4_2_2 +0 x_4_2_3 +1 x_4_1_0_sb +1 x_4_1_1_sb +0 x_4_1_2_sb +1 x_4_1_3_sb +0 p0_4_1 +0 p1_4_1 >= 0
+0 x_4_4_0 +0 x_4_4_1 +0 x_4_4_2 +0 x_4_4_3 +0 x_4_2_0_sb +0 x_4_2_1_sb +0 x_4_2_2_sb +0 x_4_2_3_sb -1 p0_4_2 -1 p1_4_2 >= -1
+0 x_4_4_0 +0 x_4_4_1 +0 x_4_4_2 +0 x_4_4_3 +0 x_4_2_0_sb +0 x_4_2_1_sb +0 x_4_2_2_sb -1 x_4_2_3_sb +1 p0_4_2 +1 p1_4_2 >= 0
+0 x_4_4_0 +0 x_4_4_1 +0 x_4_4_2 +0 x_4_4_3 +0 x_4_2_0_sb -1 x_4_2_1_sb +0 x_4_2_2_sb +0 x_4_2_3_sb +1 p0_4_2 +1 p1_4_2 >= 0
+0 x_4_4_0 +0 x_4_4_1 +0 x_4_4_2 +0 x_4_4_3 -1 x_4_2_0_sb +0 x_4_2_1_sb +0 x_4_2_2_sb +0 x_4_2_3_sb +1 p0_4_2 +1 p1_4_2 >= 0
+0 x_4_4_0 +0 x_4_4_1 +0 x_4_4_2 +0 x_4_4_3 +1 x_4_2_0_sb +1 x_4_2_1_sb +1 x_4_2_2_sb +1 x_4_2_3_sb +0 p0_4_2 -1 p1_4_2 >= 0
+0 x_4_4_0 +0 x_4_4_1 +0 x_4_4_2 -1 x_4_4_3 +1 x_4_2_0_sb +1 x_4_2_1_sb +0 x_4_2_2_sb +1 x_4_2_3_sb +0 p0_4_2 +1 p1_4_2 >= 0
-1 x_4_4_0 +0 x_4_4_1 -1 x_4_4_2 +0 x_4_4_3 +1 x_4_2_0_sb +0 x_4_2_1_sb +0 x_4_2_2_sb +1 x_4_2_3_sb +0 p0_4_2 -1 p1_4_2 >= -2
+1 x_4_4_0 +0 x_4_4_1 +1 x_4_4_2 +0 x_4_4_3 +1 x_4_2_0_sb +0 x_4_2_1_sb +1 x_4_2_2_sb +0 x_4_2_3_sb +0 p0_4_2 -1 p1_4_2 >= 0
+0 x_4_4_0 +0 x_4_4_1 +0 x_4_4_2 +1 x_4_4_3 +0 x_4_2_0_sb +1 x_4_2_1_sb -1 x_4_2_2_sb -1 x_4_2_3_sb +0 p0_4_2 -1 p1_4_2 >= -2
-1 x_4_4_0 +0 x_4_4_1 +0 x_4_4_2 -1 x_4_4_3 -1 x_4_2_0_sb +0 x_4_2_1_sb +0 x_4_2_2_sb +1 x_4_2_3_sb +0 p0_4_2 -1 p1_4_2 >= -3
+0 x_4_4_0 +0 x_4_4_1 +0 x_4_4_2 +1 x_4_4_3 -1 x_4_2_0_sb -1 x_4_2_1_sb -1 x_4_2_2_sb +0 x_4_2_3_sb +0 p0_4_2 -1 p1_4_2 >= -3
+1 x_4_4_0 +1 x_4_4_1 +0 x_4_4_2 +1 x_4_4_3 +0 x_4_2_0_sb +0 x_4_2_1_sb +0 x_4_2_2_sb +0 x_4_2_3_sb -1 p0_4_2 +0 p1_4_2 >= 0
+0 x_4_4_0 +0 x_4_4_1 +1 x_4_4_2 +1 x_4_4_3 +0 x_4_2_0_sb -1 x_4_2_1_sb +1 x_4_2_2_sb +0 x_4_2_3_sb +0 p0_4_2 -1 p1_4_2 >= -1
+0 x_4_4_0 +1 x_4_4_1 +0 x_4_4_2 -1 x_4_4_3 -1 x_4_2_0_sb +0 x_4_2_1_sb -1 x_4_2_2_sb +0 x_4_2_3_sb +0 p0_4_2 -1 p1_4_2 >= -3
+0 x_4_4_0 +1 x_4_4_1 +1 x_4_4_2 +0 x_4_4_3 +0 x_4_2_0_sb +0 x_4_2_1_sb +1 x_4_2_2_sb -1 x_4_2_3_sb +0 p0_4_2 -1 p1_4_2 >= -1
-1 x_4_4_0 +0 x_4_4_1 -1 x_4_4_2 +0 x_4_4_3 -1 x_4_2_0_sb +0 x_4_2_1_sb +1 x_4_2_2_sb +0 x_4_2_3_sb +0 p0_4_2 -1 p1_4_2 >= -3
+0 x_4_4_0 -1 x_4_4_1 -1 x_4_4_2 +0 x_4_4_3 +0 x_4_2_0_sb +1 x_4_2_1_sb +0 x_4_2_2_sb +1 x_4_2_3_sb +0 p0_4_2 -1 p1_4_2 >= -2
+0 x_4_4_0 -1 x_4_4_1 +0 x_4_4_2 +0 x_4_4_3 +1 x_4_2_0_sb +1 x_4_2_1_sb +0 x_4_2_2_sb +1 x_4_2_3_sb +0 p0_4_2 +1 p1_4_2 >= 0
-1 x_4_4_0 -1 x_4_4_1 +0 x_4_4_2 +1 x_4_4_3 +0 x_4_2_0_sb +1 x_4_2_1_sb +0 x_4_2_2_sb +1 x_4_2_3_sb +0 p0_4_2 -1 p1_4_2 >= -2
+0 x_4_4_0 -1 x_4_4_1 +0 x_4_4_2 +0 x_4_4_3 +1 x_4_2_0_sb +0 x_4_2_1_sb +1 x_4_2_2_sb +1 x_4_2_3_sb +0 p0_4_2 -1 p1_4_2 >= -1
-1 x_4_4_0 +0 x_4_4_1 -1 x_4_4_2 +0 x_4_4_3 +1 x_4_2_0_sb +1 x_4_2_1_sb +0 x_4_2_2_sb +0 x_4_2_3_sb +0 p0_4_2 -1 p1_4_2 >= -2
+0 x_4_4_0 +1 x_4_4_1 -1 x_4_4_2 -1 x_4_4_3 +0 x_4_2_0_sb +0 x_4_2_1_sb +0 x_4_2_2_sb +1 x_4_2_3_sb +0 p0_4_2 -1 p1_4_2 >= -2
-1 x_4_4_0 -1 x_4_4_1 +0 x_4_4_2 -1 x_4_4_3 +0 x_4_2_0_sb +1 x_4_2_1_sb +0 x_4_2_2_sb -1 x_4_2_3_sb +0 p0_4_2 -1 p1_4_2 >= -4
-1 x_4_4_0 +1 x_4_4_1 +0 x_4_4_2 +1 x_4_4_3 +0 x_4_2_0_sb +1 x_4_2_1_sb +0 x_4_2_2_sb +1 x_4_2_3_sb +0 p0_4_2 +1 p1_4_2 >= 0
+0 x_4_4_0 +0 x_4_4_1 +0 x_4_4_2 +0 x_4_4_3 +1 x_4_2_0_sb -1 x_4_2_1_sb +0 x_4_2_2_sb -1 x_4_2_3_sb +0 p0_4_2 +1 p1_4_2 >= -1
+1 x_4_4_0 +0 x_4_4_1 +1 x_4_4_2 +0 x_4_4_3 +1 x_4_2_0_sb -1 x_4_2_1_sb +0 x_4_2_2_sb +0 x_4_2_3_sb +0 p0_4_2 -1 p1_4_2 >= -1
+0 x_4_4_0 +1 x_4_4_1 +0 x_4_4_2 +1 x_4_4_3 +0 x_4_2_0_sb -1 x_4_2_1_sb -1 x_4_2_2_sb +0 x_4_2_3_sb +0 p0_4_2 -1 p1_4_2 >= -2
+1 x_4_4_0 -1 x_4_4_1 +0 x_4_4_2 -1 x_4_4_3 +0 x_4_2_0_sb +0 x_4_2_1_sb +1 x_4_2_2_sb +0 x_4_2_3_sb +0 p0_4_2 +0 p1_4_2 >= -1
+1 x_4_4_0 -1 x_4_4_1 -1 x_4_4_2 +0 x_4_4_3 +0 x_4_2_0_sb +0 x_4_2_1_sb +1 x_4_2_2_sb -1 x_4_2_3_sb +0 p0_4_2 -1 p1_4_2 >= -3
+1 x_4_4_0 -1 x_4_4_1 +0 x_4_4_2 -1 x_4_4_3 +0 x_4_2_0_sb +0 x_4_2_1_sb +0 x_4_2_2_sb +0 x_4_2_3_sb +0 p0_4_2 +1 p1_4_2 >= -1
+1 x_4_4_0 +0 x_4_4_1 +0 x_4_4_2 +0 x_4_4_3 -1 x_4_2_0_sb +1 x_4_2_1_sb +0 x_4_2_2_sb -1 x_4_2_3_sb +0 p0_4_2 +1 p1_4_2 >= -1
+1 x_4_4_0 +0 x_4_4_1 +0 x_4_4_2 +0 x_4_4_3 -1 x_4_2_0_sb -1 x_4_2_1_sb +0 x_4_2_2_sb +1 x_4_2_3_sb +0 p0_4_2 +1 p1_4_2 >= -1
-1 x_4_4_0 -1 x_4_4_1 +0 x_4_4_2 +1 x_4_4_3 +1 x_4_2_0_sb +0 x_4_2_1_sb +0 x_4_2_2_sb +0 x_4_2_3_sb +0 p0_4_2 +1 p1_4_2 >= -1
-1 x_4_4_0 +1 x_4_4_1 +0 x_4_4_2 -1 x_4_4_3 +1 x_4_2_0_sb +0 x_4_2_1_sb +0 x_4_2_2_sb +0 x_4_2_3_sb +0 p0_4_2 +1 p1_4_2 >= -1
+0 x_4_4_0 -1 x_4_4_1 +0 x_4_4_2 -1 x_4_4_3 +0 x_4_2_0_sb -1 x_4_2_1_sb +0 x_4_2_2_sb -1 x_4_2_3_sb +0 p0_4_2 +1 p1_4_2 >= -3
+1 x_4_4_0 +1 x_4_4_1 +0 x_4_4_2 +1 x_4_4_3 +0 x_4_2_0_sb +0 x_4_2_1_sb -1 x_4_2_2_sb +0 x_4_2_3_sb +0 p0_4_2 +0 p1_4_2 >= 0
-1 x_4_4_0 +0 x_4_4_1 +1 x_4_4_2 -1 x_4_4_3 +0 x_4_2_0_sb -1 x_4_2_1_sb -1 x_4_2_2_sb +0 x_4_2_3_sb +0 p0_4_2 -1 p1_4_2 >= -4
+1 x_4_4_0 +1 x_4_4_1 +0 x_4_4_2 -1 x_4_4_3 +1 x_4_2_0_sb +1 x_4_2_1_sb +0 x_4_2_2_sb -1 x_4_2_3_sb +0 p0_4_2 -1 p1_4_2 >= -2
+1 x_4_4_0 +0 x_4_4_1 +1 x_4_4_2 +0 x_4_4_3 +0 x_4_2_0_sb +1 x_4_2_1_sb +1 x_4_2_2_sb +1 x_4_2_3_sb +0 p0_4_2 -1 p1_4_2 >= 0
+1 x_4_4_0 +0 x_4_4_1 -1 x_4_4_2 -1 x_4_4_3 -1 x_4_2_0_sb -1 x_4_2_1_sb +0 x_4_2_2_sb -1 x_4_2_3_sb +0 p0_4_2 -1 p1_4_2 >= -5
+0 x_4_4_0 +0 x_4_4_1 +1 x_4_4_2 +1 x_4_4_3 -1 x_4_2_0_sb +0 x_4_2_1_sb -1 x_4_2_2_sb +0 x_4_2_3_sb +0 p0_4_2 -1 p1_4_2 >= -2
+0 x_4_4_0 +0 x_4_4_1 +1 x_4_4_2 +0 x_4_4_3 +1 x_4_2_0_sb -1 x_4_2_1_sb +0 x_4_2_2_sb -1 x_4_2_3_sb +0 p0_4_2 +0 p1_4_2 >= -1
+0 x_4_4_0 -1 x_4_4_1 +0 x_4_4_2 -1 x_4_4_3 +0 x_4_2_0_sb +1 x_4_2_1_sb +0 x_4_2_2_sb +1 x_4_2_3_sb +0 p0_4_2 +1 p1_4_2 >= -1
+0 x_4_4_0 +1 x_4_4_1 +0 x_4_4_2 +1 x_4_4_3 +0 x_4_2_0_sb -1 x_4_2_1_sb +0 x_4_2_2_sb -1 x_4_2_3_sb +0 p0_4_2 +1 p1_4_2 >= -1
+1 x_4_4_0 -1 x_4_4_1 +1 x_4_4_2 -1 x_4_4_3 +1 x_4_2_0_sb +0 x_4_2_1_sb +0 x_4_2_2_sb +0 x_4_2_3_sb +0 p0_4_2 +0 p1_4_2 >= -1
+1 x_4_4_0 +0 x_4_4_1 +0 x_4_4_2 +0 x_4_4_3 +1 x_4_2_0_sb -1 x_4_2_1_sb +1 x_4_2_2_sb -1 x_4_2_3_sb +0 p0_4_2 +0 p1_4_2 >= -1
+0 x_4_4_0 -1 x_4_4_1 +0 x_4_4_2 -1 x_4_4_3 +1 x_4_2_0_sb -1 x_4_2_1_sb -1 x_4_2_2_sb -1 x_4_2_3_sb +0 p0_4_2 +0 p1_4_2 >= -4
+1 x_4_4_0 +0 x_4_4_1 +0 x_4_4_2 +1 x_4_4_3 +0 x_4_2_0_sb -1 x_4_2_1_sb -1 x_4_2_2_sb +1 x_4_2_3_sb +0 p0_4_2 -1 p1_4_2 >= -2
+0 x_4_4_0 +0 x_4_4_1 -1 x_4_4_2 +1 x_4_4_3 -1 x_4_2_0_sb +1 x_4_2_1_sb +0 x_4_2_2_sb -1 x_4_2_3_sb +0 p0_4_2 -1 p1_4_2 >= -3
+0 x_4_4_0 +1 x_4_4_1 +0 x_4_4_2 +1 x_4_4_3 -1 x_4_2_0_sb -1 x_4_2_1_sb +0 x_4_2_2_sb +1 x_4_2_3_sb +0 p0_4_2 -1 p1_4_2 >= -2
-1 x_4_4_0 +1 x_4_4_1 +0 x_4_4_2 -1 x_4_4_3 +0 x_4_2_0_sb +0 x_4_2_1_sb -1 x_4_2_2_sb +1 x_4_2_3_sb +0 p0_4_2 -1 p1_4_2 >= -3
-1 x_4_4_0 +0 x_4_4_1 +0 x_4_4_2 +0 x_4_4_3 -1 x_4_2_0_sb +1 x_4_2_1_sb +0 x_4_2_2_sb -1 x_4_2_3_sb +0 p0_4_2 -1 p1_4_2 >= -3
+0 x_4_4_0 +0 x_4_4_1 -1 x_4_4_2 +0 x_4_4_3 +1 x_4_2_0_sb +1 x_4_2_1_sb +0 x_4_2_2_sb +1 x_4_2_3_sb +0 p0_4_2 +0 p1_4_2 >= 0
+0 x_4_6_0 +0 x_4_6_1 +0 x_4_6_2 +0 x_4_6_3 +0 x_4_3_0_sb +0 x_4_3_1_sb +0 x_4_3_2_sb +0 x_4_3_3_sb -1 p0_4_3 -1 p1_4_3 >= -1
+0 x_4_6_0 +0 x_4_6_1 +0 x_4_6_2 +0 x_4_6_3 +0 x_4_3_0_sb +0 x_4_3_1_sb +0 x_4_3_2_sb -1 x_4_3_3_sb +1 p0_4_3 +1 p1_4_3 >= 0
+0 x_4_6_0 +0 x_4_6_1 +0 x_4_6_2 +0 x_4_6_3 +0 x_4_3_0_sb -1 x_4_3_1_sb +0 x_4_3_2_sb +0 x_4_3_3_sb +1 p0_4_3 +1 p1_4_3 >= 0
+0 x_4_6_0 +0 x_4_6_1 +0 x_4_6_2 +0 x_4_6_3 -1 x_4_3_0_sb +0 x_4_3_1_sb +0 x_4_3_2_sb +0 x_4_3_3_sb +1 p0_4_3 +1 p1_4_3 >= 0
+0 x_4_6_0 +0 x_4_6_1 +0 x_4_6_2 +0 x_4_6_3 +1 x_4_3_0_sb +1 x_4_3_1_sb +1 x_4_3_2_sb +1 x_4_3_3_sb +0 p0_4_3 -1 p1_4_3 >= 0
+0 x_4_6_0 +0 x_4_6_1 +0 x_4_6_2 -1 x_4_6_3 +1 x_4_3_0_sb +1 x_4_3_1_sb +0 x_4_3_2_sb +1 x_4_3_3_sb +0 p0_4_3 +1 p1_4_3 >= 0
-1 x_4_6_0 +0 x_4_6_1 -1 x_4_6_2 +0 x_4_6_3 +1 x_4_3_0_sb +0 x_4_3_1_sb +0 x_4_3_2_sb +1 x_4_3_3_sb +0 p0_4_3 -1 p1_4_3 >= -2
+1 x_4_6_0 +0 x_4_6_1 +1 x_4_6_2 +0 x_4_6_3 +1 x_4_3_0_sb +0 x_4_3_1_sb +1 x_4_3_2_sb +0 x_4_3_3_sb +0 p0_4_3 -1 p1_4_3 >= 0
+0 x_4_6_0 +0 x_4_6_1 +0 x_4_6_2 +1 x_4_6_3 +0 x_4_3_0_sb +1 x_4_3_1_sb -1 x_4_3_2_sb -1 x_4_3_3_sb +0 p0_4_3 -1 p1_4_3 >= -2
-1 x_4_6_0 +0 x_4_6_1 +0 x_4_6_2 -1 x_4_6_3 -1 x_4_3_0_sb +0 x_4_3_1_sb +0 x_4_3_2_sb +1 x_4_3_3_sb +0 p0_4_3 -1 p1_4_3 >= -3
+0 x_4_6_0 +0 x_4_6_1 +0 x_4_6_2 +1 x_4_6_3 -1 x_4_3_0_sb -1 x_4_3_1_sb -1 x_4_3_2_sb +0 x_4_3_3_sb +0 p0_4_3 -1 p1_4_3 >= -3
+1 x_4_6_0 +1 x_4_6_1 +0 x_4_6_2 +1 x_4_6_3 +0 x_4_3_0_sb +0 x_4_3_1_sb +0 x_4_3_2_sb +0 x_4_3_3_sb -1 p0_4_3 +0 p1_4_3 >= 0
+0 x_4_6_0 +0 x_4_6_1 +1 x_4_6_2 +1 x_4_6_3 +0 x_4_3_0_sb -1 x_4_3_1_sb +1 x_4_3_2_sb +0 x_4_3_3_sb +0 p0_4_3 -1 p1_4_3 >= -1
+0 x_4_6_0 +1 x_4_6_1 +0 x_4_6_2 -1 x_4_6_3 -1 x_4_3_0_sb +0 x_4_3_1_sb -1 x_4_3_2_sb +0 x_4_3_3_sb +0 p0_4_3 -1 p1_4_3 >= -3
+0 x_4_6_0 +1 x_4_6_1 +1 x_4_6_2 +0 x_4_6_3 +0 x_4_3_0_sb +0 x_4_3_1_sb +1 x_4_3_2_sb -1 x_4_3_3_sb +0 p0_4_3 -1 p1_4_3 >= -1
-1 x_4_6_0 +0 x_4_6_1 -1 x_4_6_2 +0 x_4_6_3 -1 x_4_3_0_sb +0 x_4_3_1_sb +1 x_4_3_2_sb +0 x_4_3_3_sb +0 p0_4_3 -1 p1_4_3 >= -3
+0 x_4_6_0 -1 x_4_6_1 -1 x_4_6_2 +0 x_4_6_3 +0 x_4_3_0_sb +1 x_4_3_1_sb +0 x_4_3_2_sb +1 x_4_3_3_sb +0 p0_4_3 -1 p1_4_3 >= -2
+0 x_4_6_0 -1 x_4_6_1 +0 x_4_6_2 +0 x_4_6_3 +1 x_4_3_0_sb +1 x_4_3_1_sb +0 x_4_3_2_sb +1 x_4_3_3_sb +0 p0_4_3 +1 p1_4_3 >= 0
-1 x_4_6_0 -1 x_4_6_1 +0 x_4_6_2 +1 x_4_6_3 +0 x_4_3_0_sb +1 x_4_3_1_sb +0 x_4_3_2_sb +1 x_4_3_3_sb +0 p0_4_3 -1 p1_4_3 >= -2
+0 x_4_6_0 -1 x_4_6_1 +0 x_4_6_2 +0 x_4_6_3 +1 x_4_3_0_sb +0 x_4_3_1_sb +1 x_4_3_2_sb +1 x_4_3_3_sb +0 p0_4_3 -1 p1_4_3 >= -1
-1 x_4_6_0 +0 x_4_6_1 -1 x_4_6_2 +0 x_4_6_3 +1 x_4_3_0_sb +1 x_4_3_1_sb +0 x_4_3_2_sb +0 x_4_3_3_sb +0 p0_4_3 -1 p1_4_3 >= -2
+0 x_4_6_0 +1 x_4_6_1 -1 x_4_6_2 -1 x_4_6_3 +0 x_4_3_0_sb +0 x_4_3_1_sb +0 x_4_3_2_sb +1 x_4_3_3_sb +0 p0_4_3 -1 p1_4_3 >= -2
-1 x_4_6_0 -1 x_4_6_1 +0 x_4_6_2 -1 x_4_6_3 +0 x_4_3_0_sb +1 x_4_3_1_sb +0 x_4_3_2_sb -1 x_4_3_3_sb +0 p0_4_3 -1 p1_4_3 >= -4
-1 x_4_6_0 +1 x_4_6_1 +0 x_4_6_2 +1 x_4_6_3 +0 x_4_3_0_sb +1 x_4_3_1_sb +0 x_4_3_2_sb +1 x_4_3_3_sb +0 p0_4_3 +1 p1_4_3 >= 0
+0 x_4_6_0 +0 x_4_6_1 +0 x_4_6_2 +0 x_4_6_3 +1 x_4_3_0_sb -1 x_4_3_1_sb +0 x_4_3_2_sb -1 x_4_3_3_sb +0 p0_4_3 +1 p1_4_3 >= -1
+1 x_4_6_0 +0 x_4_6_1 +1 x_4_6_2 +0 x_4_6_3 +1 x_4_3_0_sb -1 x_4_3_1_sb +0 x_4_3_2_sb +0 x_4_3_3_sb +0 p0_4_3 -1 p1_4_3 >= -1
+0 x_4_6_0 +1 x_4_6_1 +0 x_4_6_2 +1 x_4_6_3 +0 x_4_3_0_sb -1 x_4_3_1_sb -1 x_4_3_2_sb +0 x_4_3_3_sb +0 p0_4_3 -1 p1_4_3 >= -2
+1 x_4_6_0 -1 x_4_6_1 +0 x_4_6_2 -1 x_4_6_3 +0 x_4_3_0_sb +0 x_4_3_1_sb +1 x_4_3_2_sb +0 x_4_3_3_sb +0 p0_4_3 +0 p1_4_3 >= -1
+1 x_4_6_0 -1 x_4_6_1 -1 x_4_6_2 +0 x_4_6_3 +0 x_4_3_0_sb +0 x_4_3_1_sb +1 x_4_3_2_sb -1 x_4_3_3_sb +0 p0_4_3 -1 p1_4_3 >= -3
+1 x_4_6_0 -1 x_4_6_1 +0 x_4_6_2 -1 x_4_6_3 +0 x_4_3_0_sb +0 x_4_3_1_sb +0 x_4_3_2_sb +0 x_4_3_3_sb +0 p0_4_3 +1 p1_4_3 >= -1
+1 x_4_6_0 +0 x_4_6_1 +0 x_4_6_2 +0 x_4_6_3 -1 x_4_3_0_sb +1 x_4_3_1_sb +0 x_4_3_2_sb -1 x_4_3_3_sb +0 p0_4_3 +1 p1_4_3 >= -1
+1 x_4_6_0 +0 x_4_6_1 +0 x_4_6_2 +0 x_4_6_3 -1 x_4_3_0_sb -1 x_4_3_1_sb +0 x_4_3_2_sb +1 x_4_3_3_sb +0 p0_4_3 +1 p1_4_3 >= -1
-1 x_4_6_0 -1 x_4_6_1 +0 x_4_6_2 +1 x_4_6_3 +1 x_4_3_0_sb +0 x_4_3_1_sb +0 x_4_3_2_sb +0 x_4_3_3_sb +0 p0_4_3 +1 p1_4_3 >= -1
-1 x_4_6_0 +1 x_4_6_1 +0 x_4_6_2 -1 x_4_6_3 +1 x_4_3_0_sb +0 x_4_3_1_sb +0 x_4_3_2_sb +0 x_4_3_3_sb +0 p0_4_3 +1 p1_4_3 >= -1
+0 x_4_6_0 -1 x_4_6_1 +0 x_4_6_2 -1 x_4_6_3 +0 x_4_3_0_sb -1 x_4_3_1_sb +0 x_4_3_2_sb -1 x_4_3_3_sb +0 p0_4_3 +1 p1_4_3 >= -3
+1 x_4_6_0 +1 x_4_6_1 +0 x_4_6_2 +1 x_4_6_3 +0 x_4_3_0_sb +0 x_4_3_1_sb -1 x_4_3_2_sb +0 x_4_3_3_sb +0 p0_4_3 +0 p1_4_3 >= 0
-1 x_4_6_0 +0 x_4_6_1 +1 x_4_6_2 -1 x_4_6_3 +0 x_4_3_0_sb -1 x_4_3_1_sb -1 x_4_3_2_sb +0 x_4_3_3_sb +0 p0_4_3 -1 p1_4_3 >= -4
+1 x_4_6_0 +1 x_4_6_1 +0 x_4_6_2 -1 x_4_6_3 +1 x_4_3_0_sb +1 x_4_3_1_sb +0 x_4_3_2_sb -1 x_4_3_3_sb +0 p0_4_3 -1 p1_4_3 >= -2
+1 x_4_6_0 +0 x_4_6_1 +1 x_4_6_2 +0 x_4_6_3 +0 x_4_3_0_sb +1 x_4_3_1_sb +1 x_4_3_2_sb +1 x_4_3_3_sb +0 p0_4_3 -1 p1_4_3 >= 0
+1 x_4_6_0 +0 x_4_6_1 -1 x_4_6_2 -1 x_4_6_3 -1 x_4_3_0_sb -1 x_4_3_1_sb +0 x_4_3_2_sb -1 x_4_3_3_sb +0 p0_4_3 -1 p1_4_3 >= -5
+0 x_4_6_0 +0 x_4_6_1 +1 x_4_6_2 +1 x_4_6_3 -1 x_4_3_0_sb +0 x_4_3_1_sb -1 x_4_3_2_sb +0 x_4_3_3_sb +0 p0_4_3 -1 p1_4_3 >= -2
+0 x_4_6_0 +0 x_4_6_1 +1 x_4_6_2 +0 x_4_6_3 +1 x_4_3_0_sb -1 x_4_3_1_sb +0 x_4_3_2_sb -1 x_4_3_3_sb +0 p0_4_3 +0 p1_4_3 >= -1
+0 x_4_6_0 -1 x_4_6_1 +0 x_4_6_2 -1 x_4_6_3 +0 x_4_3_0_sb +1 x_4_3_1_sb +0 x_4_3_2_sb +1 x_4_3_3_sb +0 p0_4_3 +1 p1_4_3 >= -1
+0 x_4_6_0 +1 x_4_6_1 +0 x_4_6_2 +1 x_4_6_3 +0 x_4_3_0_sb -1 x_4_3_1_sb +0 x_4_3_2_sb -1 x_4_3_3_sb +0 p0_4_3 +1 p1_4_3 >= -1
+1 x_4_6_0 -1 x_4_6_1 +1 x_4_6_2 -1 x_4_6_3 +1 x_4_3_0_sb +0 x_4_3_1_sb +0 x_4_3_2_sb +0 x_4_3_3_sb +0 p0_4_3 +0 p1_4_3 >= -1
+1 x_4_6_0 +0 x_4_6_1 +0 x_4_6_2 +0 x_4_6_3 +1 x_4_3_0_sb -1 x_4_3_1_sb +1 x_4_3_2_sb -1 x_4_3_3_sb +0 p0_4_3 +0 p1_4_3 >= -1
+0 x_4_6_0 -1 x_4_6_1 +0 x_4_6_2 -1 x_4_6_3 +1 x_4_3_0_sb -1 x_4_3_1_sb -1 x_4_3_2_sb -1 x_4_3_3_sb +0 p0_4_3 +0 p1_4_3 >= -4
+1 x_4_6_0 +0 x_4_6_1 +0 x_4_6_2 +1 x_4_6_3 +0 x_4_3_0_sb -1 x_4_3_1_sb -1 x_4_3_2_sb +1 x_4_3_3_sb +0 p0_4_3 -1 p1_4_3 >= -2
+0 x_4_6_0 +0 x_4_6_1 -1 x_4_6_2 +1 x_4_6_3 -1 x_4_3_0_sb +1 x_4_3_1_sb +0 x_4_3_2_sb -1 x_4_3_3_sb +0 p0_4_3 -1 p1_4_3 >= -3
+0 x_4_6_0 +1 x_4_6_1 +0 x_4_6_2 +1 x_4_6_3 -1 x_4_3_0_sb -1 x_4_3_1_sb +0 x_4_3_2_sb +1 x_4_3_3_sb +0 p0_4_3 -1 p1_4_3 >= -2
-1 x_4_6_0 +1 x_4_6_1 +0 x_4_6_2 -1 x_4_6_3 +0 x_4_3_0_sb +0 x_4_3_1_sb -1 x_4_3_2_sb +1 x_4_3_3_sb +0 p0_4_3 -1 p1_4_3 >= -3
-1 x_4_6_0 +0 x_4_6_1 +0 x_4_6_2 +0 x_4_6_3 -1 x_4_3_0_sb +1 x_4_3_1_sb +0 x_4_3_2_sb -1 x_4_3_3_sb +0 p0_4_3 -1 p1_4_3 >= -3
+0 x_4_6_0 +0 x_4_6_1 -1 x_4_6_2 +0 x_4_6_3 +1 x_4_3_0_sb +1 x_4_3_1_sb +0 x_4_3_2_sb +1 x_4_3_3_sb +0 p0_4_3 +0 p1_4_3 >= 0
+0 x_4_8_0 +0 x_4_8_1 +0 x_4_8_2 +0 x_4_8_3 +0 x_4_4_0_sb +0 x_4_4_1_sb +0 x_4_4_2_sb +0 x_4_4_3_sb -1 p0_4_4 -1 p1_4_4 >= -1
+0 x_4_8_0 +0 x_4_8_1 +0 x_4_8_2 +0 x_4_8_3 +0 x_4_4_0_sb +0 x_4_4_1_sb +0 x_4_4_2_sb -1 x_4_4_3_sb +1 p0_4_4 +1 p1_4_4 >= 0
+0 x_4_8_0 +0 x_4_8_1 +0 x_4_8_2 +0 x_4_8_3 +0 x_4_4_0_sb -1 x_4_4_1_sb +0 x_4_4_2_sb +0 x_4_4_3_sb +1 p0_4_4 +1 p1_4_4 >= 0
+0 x_4_8_0 +0 x_4_8_1 +0 x_4_8_2 +0 x_4_8_3 -1 x_4_4_0_sb +0 x_4_4_1_sb +0 x_4_4_2_sb +0 x_4_4_3_sb +1 p0_4_4 +1 p1_4_4 >= 0
+0 x_4_8_0 +0 x_4_8_1 +0 x_4_8_2 +0 x_4_8_3 +1 x_4_4_0_sb +1 x_4_4_1_sb +1 x_4_4_2_sb +1 x_4_4_3_sb +0 p0_4_4 -1 p1_4_4 >= 0
+0 x_4_8_0 +0 x_4_8_1 +0 x_4_8_2 -1 x_4_8_3 +1 x_4_4_0_sb +1 x_4_4_1_sb +0 x_4_4_2_sb +1 x_4_4_3_sb +0 p0_4_4 +1 p1_4_4 >= 0
-1 x_4_8_0 +0 x_4_8_1 -1 x_4_8_2 +0 x_4_8_3 +1 x_4_4_0_sb +0 x_4_4_1_sb +0 x_4_4_2_sb +1 x_4_4_3_sb +0 p0_4_4 -1 p1_4_4 >= -2
+1 x_4_8_0 +0 x_4_8_1 +1 x_4_8_2 +0 x_4_8_3 +1 x_4_4_0_sb +0 x_4_4_1_sb +1 x_4_4_2_sb +0 x_4_4_3_sb +0 p0_4_4 -1 p1_4_4 >= 0
+0 x_4_8_0 +0 x_4_8_1 +0 x_4_8_2 +1 x_4_8_3 +0 x_4_4_0_sb +1 x_4_4_1_sb -1 x_4_4_2_sb -1 x_4_4_3_sb +0 p0_4_4 -1 p1_4_4 >= -2
-1 x_4_8_0 +0 x_4_8_1 +0 x_4_8_2 -1 x_4_8_3 -1 x_4_4_0_sb +0 x_4_4_1_sb +0 x_4_4_2_sb +1 x_4_4_3_sb +0 p0_4_4 -1 p1_4_4 >= -3
+0 x_4_8_0 +0 x_4_8_1 +0 x_4_8_2 +1 x_4_8_3 -1 x_4_4_0_sb -1 x_4_4_1_sb -1 x_4_4_2_sb +0 x_4_4_3_sb +0 p0_4_4 -1 p1_4_4 >= -3
+1 x_4_8_0 +1 x_4_8_1 +0 x_4_8_2 +1 x_4_8_3 +0 x_4_4_0_sb +0 x_4_4_1_sb +0 x_4_4_2_sb +0 x_4_4_3_sb -1 p0_4_4 +0 p1_4_4 >= 0
+0 x_4_8_0 +0 x_4_8_1 +1 x_4_8_2 +1 x_4_8_3 +0 x_4_4_0_sb -1 x_4_4_1_sb +1 x_4_4_2_sb +0 x_4_4_3_sb +0 p0_4_4 -1 p1_4_4 >= -1
+0 x_4_8_0 +1 x_4_8_1 +0 x_4_8_2 -1 x_4_8_3 -1 x_4_4_0_sb +0 x_4_4_1_sb -1 x_4_4_2_sb +0 x_4_4_3_sb +0 p0_4_4 -1 p1_4_4 >= -3
+0 x_4_8_0 +1 x_4_8_1 +1 x_4_8_2 +0 x_4_8_3 +0 x_4_4_0_sb +0 x_4_4_1_sb +1 x_4_4_2_sb -1 x_4_4_3_sb +0 p0_4_4 -1 p1_4_4 >= -1
-1 x_4_8_0 +0 x_4_8_1 -1 x_4_8_2 +0 x_4_8_3 -1 x_4_4_0_sb +0 x_4_4_1_sb +1 x_4_4_2_sb +0 x_4_4_3_sb +0 p0_4_4 -1 p1_4_4 >= -3
+0 x_4_8_0 -1 x_4_8_1 -1 x_4_8_2 +0 x_4_8_3 +0 x_4_4_0_sb +1 x_4_4_1_sb +0 x_4_4_2_sb +1 x_4_4_3_sb +0 p0_4_4 -1 p1_4_4 >= -2
+0 x_4_8_0 -1 x_4_8_1 +0 x_4_8_2 +0 x_4_8_3 +1 x_4_4_0_sb +1 x_4_4_1_sb +0 x_4_4_2_sb +1 x_4_4_3_sb +0 p0_4_4 +1 p1_4_4 >= 0
-1 x_4_8_0 -1 x_4_8_1 +0 x_4_8_2 +1 x_4_8_3 +0 x_4_4_0_sb +1 x_4_4_1_sb +0 x_4_4_2_sb +1 x_4_4_3_sb +0 p0_4_4 -1 p1_4_4 >= -2
+0 x_4_8_0 -1 x_4_8_1 +0 x_4_8_2 +0 x_4_8_3 +1 x_4_4_0_sb +0 x_4_4_1_sb +1 x_4_4_2_sb +1 x_4_4_3_sb +0 p0_4_4 -1 p1_4_4 >= -1
-1 x_4_8_0 +0 x_4_8_1 -1 x_4_8_2 +0 x_4_8_3 +1 x_4_4_0_sb +1 x_4_4_1_sb +0 x_4_4_2_sb +0 x_4_4_3_sb +0 p0_4_4 -1 p1_4_4 >= -2
+0 x_4_8_0 +1 x_4_8_1 -1 x_4_8_2 -1 x_4_8_3 +0 x_4_4_0_sb +0 x_4_4_1_sb +0 x_4_4_2_sb +1 x_4_4_3_sb +0 p0_4_4 -1 p1_4_4 >= -2
-1 x_4_8_0 -1 x_4_8_1 +0 x_4_8_2 -1 x_4_8_3 +0 x_4_4_0_sb +1 x_4_4_1_sb +0 x_4_4_2_sb -1 x_4_4_3_sb +0 p0_4_4 -1 p1_4_4 >= -4
-1 x_4_8_0 +1 x_4_8_1 +0 x_4_8_2 +1 x_4_8_3 +0 x_4_4_0_sb +1 x_4_4_1_sb +0 x_4_4_2_sb +1 x_4_4_3_sb +0 p0_4_4 +1 p1_4_4 >= 0
+0 x_4_8_0 +0 x_4_8_1 +0 x_4_8_2 +0 x_4_8_3 +1 x_4_4_0_sb -1 x_4_4_1_sb +0 x_4_4_2_sb -1 x_4_4_3_sb +0 p0_4_4 +1 p1_4_4 >= -1
+1 x_4_8_0 +0 x_4_8_1 +1 x_4_8_2 +0 x_4_8_3 +1 x_4_4_0_sb -1 x_4_4_1_sb +0 x_4_4_2_sb +0 x_4_4_3_sb +0 p0_4_4 -1 p1_4_4 >= -1
+0 x_4_8_0 +1 x_4_8_1 +0 x_4_8_2 +1 x_4_8_3 +0 x_4_4_0_sb -1 x_4_4_1_sb -1 x_4_4_2_sb +0 x_4_4_3_sb +0 p0_4_4 -1 p1_4_4 >= -2
+1 x_4_8_0 -1 x_4_8_1 +0 x_4_8_2 -1 x_4_8_3 +0 x_4_4_0_sb +0 x_4_4_1_sb +1 x_4_4_2_sb +0 x_4_4_3_sb +0 p0_4_4 +0 p1_4_4 >= -1
+1 x_4_8_0 -1 x_4_8_1 -1 x_4_8_2 +0 x_4_8_3 +0 x_4_4_0_sb +0 x_4_4_1_sb +1 x_4_4_2_sb -1 x_4_4_3_sb +0 p0_4_4 -1 p1_4_4 >= -3
+1 x_4_8_0 -1 x_4_8_1 +0 x_4_8_2 -1 x_4_8_3 +0 x_4_4_0_sb +0 x_4_4_1_sb +0 x_4_4_2_sb +0 x_4_4_3_sb +0 p0_4_4 +1 p1_4_4 >= -1
+1 x_4_8_0 +0 x_4_8_1 +0 x_4_8_2 +0 x_4_8_3 -1 x_4_4_0_sb +1 x_4_4_1_sb +0 x_4_4_2_sb -1 x_4_4_3_sb +0 p0_4_4 +1 p1_4_4 >= -1
+1 x_4_8_0 +0 x_4_8_1 +0 x_4_8_2 +0 x_4_8_3 -1 x_4_4_0_sb -1 x_4_4_1_sb +0 x_4_4_2_sb +1 x_4_4_3_sb +0 p0_4_4 +1 p1_4_4 >= -1
-1 x_4_8_0 -1 x_4_8_1 +0 x_4_8_2 +1 x_4_8_3 +1 x_4_4_0_sb +0 x_4_4_1_sb +0 x_4_4_2_sb +0 x_4_4_3_sb +0 p0_4_4 +1 p1_4_4 >= -1
-1 x_4_8_0 +1 x_4_8_1 +0 x_4_8_2 -1 x_4_8_3 +1 x_4_4_0_sb +0 x_4_4_1_sb +0 x_4_4_2_sb +0 x_4_4_3_sb +0 p0_4_4 +1 p1_4_4 >= -1
+0 x_4_8_0 -1 x_4_8_1 +0 x_4_8_2 -1 x_4_8_3 +0 x_4_4_0_sb -1 x_4_4_1_sb +0 x_4_4_2_sb -1 x_4_4_3_sb +0 p0_4_4 +1 p1_4_4 >= -3
+1 x_4_8_0 +1 x_4_8_1 +0 x_4_8_2 +1 x_4_8_3 +0 x_4_4_0_sb +0 x_4_4_1_sb -1 x_4_4_2_sb +0 x_4_4_3_sb +0 p0_4_4 +0 p1_4_4 >= 0
-1 x_4_8_0 +0 x_4_8_1 +1 x_4_8_2 -1 x_4_8_3 +0 x_4_4_0_sb -1 x_4_4_1_sb -1 x_4_4_2_sb +0 x_4_4_3_sb +0 p0_4_4 -1 p1_4_4 >= -4
+1 x_4_8_0 +1 x_4_8_1 +0 x_4_8_2 -1 x_4_8_3 +1 x_4_4_0_sb +1 x_4_4_1_sb +0 x_4_4_2_sb -1 x_4_4_3_sb +0 p0_4_4 -1 p1_4_4 >= -2
+1 x_4_8_0 +0 x_4_8_1 +1 x_4_8_2 +0 x_4_8_3 +0 x_4_4_0_sb +1 x_4_4_1_sb +1 x_4_4_2_sb +1 x_4_4_3_sb +0 p0_4_4 -1 p1_4_4 >= 0
+1 x_4_8_0 +0 x_4_8_1 -1 x_4_8_2 -1 x_4_8_3 -1 x_4_4_0_sb -1 x_4_4_1_sb +0 x_4_4_2_sb -1 x_4_4_3_sb +0 p0_4_4 -1 p1_4_4 >= -5
+0 x_4_8_0 +0 x_4_8_1 +1 x_4_8_2 +1 x_4_8_3 -1 x_4_4_0_sb +0 x_4_4_1_sb -1 x_4_4_2_sb +0 x_4_4_3_sb +0 p0_4_4 -1 p1_4_4 >= -2
+0 x_4_8_0 +0 x_4_8_1 +1 x_4_8_2 +0 x_4_8_3 +1 x_4_4_0_sb -1 x_4_4_1_sb +0 x_4_4_2_sb -1 x_4_4_3_sb +0 p0_4_4 +0 p1_4_4 >= -1
+0 x_4_8_0 -1 x_4_8_1 +0 x_4_8_2 -1 x_4_8_3 +0 x_4_4_0_sb +1 x_4_4_1_sb +0 x_4_4_2_sb +1 x_4_4_3_sb +0 p0_4_4 +1 p1_4_4 >= -1
+0 x_4_8_0 +1 x_4_8_1 +0 x_4_8_2 +1 x_4_8_3 +0 x_4_4_0_sb -1 x_4_4_1_sb +0 x_4_4_2_sb -1 x_4_4_3_sb +0 p0_4_4 +1 p1_4_4 >= -1
+1 x_4_8_0 -1 x_4_8_1 +1 x_4_8_2 -1 x_4_8_3 +1 x_4_4_0_sb +0 x_4_4_1_sb +0 x_4_4_2_sb +0 x_4_4_3_sb +0 p0_4_4 +0 p1_4_4 >= -1
+1 x_4_8_0 +0 x_4_8_1 +0 x_4_8_2 +0 x_4_8_3 +1 x_4_4_0_sb -1 x_4_4_1_sb +1 x_4_4_2_sb -1 x_4_4_3_sb +0 p0_4_4 +0 p1_4_4 >= -1
+0 x_4_8_0 -1 x_4_8_1 +0 x_4_8_2 -1 x_4_8_3 +1 x_4_4_0_sb -1 x_4_4_1_sb -1 x_4_4_2_sb -1 x_4_4_3_sb +0 p0_4_4 +0 p1_4_4 >= -4
+1 x_4_8_0 +0 x_4_8_1 +0 x_4_8_2 +1 x_4_8_3 +0 x_4_4_0_sb -1 x_4_4_1_sb -1 x_4_4_2_sb +1 x_4_4_3_sb +0 p0_4_4 -1 p1_4_4 >= -2
+0 x_4_8_0 +0 x_4_8_1 -1 x_4_8_2 +1 x_4_8_3 -1 x_4_4_0_sb +1 x_4_4_1_sb +0 x_4_4_2_sb -1 x_4_4_3_sb +0 p0_4_4 -1 p1_4_4 >= -3
+0 x_4_8_0 +1 x_4_8_1 +0 x_4_8_2 +1 x_4_8_3 -1 x_4_4_0_sb -1 x_4_4_1_sb +0 x_4_4_2_sb +1 x_4_4_3_sb +0 p0_4_4 -1 p1_4_4 >= -2
-1 x_4_8_0 +1 x_4_8_1 +0 x_4_8_2 -1 x_4_8_3 +0 x_4_4_0_sb +0 x_4_4_1_sb -1 x_4_4_2_sb +1 x_4_4_3_sb +0 p0_4_4 -1 p1_4_4 >= -3
-1 x_4_8_0 +0 x_4_8_1 +0 x_4_8_2 +0 x_4_8_3 -1 x_4_4_0_sb +1 x_4_4_1_sb +0 x_4_4_2_sb -1 x_4_4_3_sb +0 p0_4_4 -1 p1_4_4 >= -3
+0 x_4_8_0 +0 x_4_8_1 -1 x_4_8_2 +0 x_4_8_3 +1 x_4_4_0_sb +1 x_4_4_1_sb +0 x_4_4_2_sb +1 x_4_4_3_sb +0 p0_4_4 +0 p1_4_4 >= 0
+0 x_4_10_0 +0 x_4_10_1 +0 x_4_10_2 +0 x_4_10_3 +0 x_4_5_0_sb +0 x_4_5_1_sb +0 x_4_5_2_sb +0 x_4_5_3_sb -1 p0_4_5 -1 p1_4_5 >= -1
+0 x_4_10_0 +0 x_4_10_1 +0 x_4_10_2 +0 x_4_10_3 +0 x_4_5_0_sb +0 x_4_5_1_sb +0 x_4_5_2_sb -1 x_4_5_3_sb +1 p0_4_5 +1 p1_4_5 >= 0
+0 x_4_10_0 +0 x_4_10_1 +0 x_4_10_2 +0 x_4_10_3 +0 x_4_5_0_sb -1 x_4_5_1_sb +0 x_4_5_2_sb +0 x_4_5_3_sb +1 p0_4_5 +1 p1_4_5 >= 0
+0 x_4_10_0 +0 x_4_10_1 +0 x_4_10_2 +0 x_4_10_3 -1 x_4_5_0_sb +0 x_4_5_1_sb +0 x_4_5_2_sb +0 x_4_5_3_sb +1 p0_4_5 +1 p1_4_5 >= 0
+0 x_4_10_0 +0 x_4_10_1 +0 x_4_10_2 +0 x_4_10_3 +1 x_4_5_0_sb +1 x_4_5_1_sb +1 x_4_5_2_sb +1 x_4_5_3_sb +0 p0_4_5 -1 p1_4_5 >= 0
+0 x_4_10_0 +0 x_4_10_1 +0 x_4_10_2 -1 x_4_10_3 +1 x_4_5_0_sb +1 x_4_5_1_sb +0 x_4_5_2_sb +1 x_4_5_3_sb +0 p0_4_5 +1 p1_4_5 >= 0
-1 x_4_10_0 +0 x_4_10_1 -1 x_4_10_2 +0 x_4_10_3 +1 x_4_5_0_sb +0 x_4_5_1_sb +0 x_4_5_2_sb +1 x_4_5_3_sb +0 p0_4_5 -1 p1_4_5 >= -2
+1 x_4_10_0 +0 x_4_10_1 +1 x_4_10_2 +0 x_4_10_3 +1 x_4_5_0_sb +0 x_4_5_1_sb +1 x_4_5_2_sb +0 x_4_5_3_sb +0 p0_4_5 -1 p1_4_5 >= 0
+0 x_4_10_0 +0 x_4_10_1 +0 x_4_10_2 +1 x_4_10_3 +0 x_4_5_0_sb +1 x_4_5_1_sb -1 x_4_5_2_sb -1 x_4_5_3_sb +0 p0_4_5 -1 p1_4_5 >= -2
-1 x_4_10_0 +0 x_4_10_1 +0 x_4_10_2 -1 x_4_10_3 -1 x_4_5_0_sb +0 x_4_5_1_sb +0 x_4_5_2_sb +1 x_4_5_3_sb +0 p0_4_5 -1 p1_4_5 >= -3
+0 x_4_10_0 +0 x_4_10_1 +0 x_4_10_2 +1 x_4_10_3 -1 x_4_5_0_sb -1 x_4_5_1_sb -1 x_4_5_2_sb +0 x_4_5_3_sb +0 p0_4_5 -1 p1_4_5 >= -3
+1 x_4_10_0 +1 x_4_10_1 +0 x_4_10_2 +1 x_4_10_3 +0 x_4_5_0_sb +0 x_4_5_1_sb +0 x_4_5_2_sb +0 x_4_5_3_sb -1 p0_4_5 +0 p1_4_5 >= 0
+0 x_4_10_0 +0 x_4_10_1 +1 x_4_10_2 +1 x_4_10_3 +0 x_4_5_0_sb -1 x_4_5_1_sb +1 x_4_5_2_sb +0 x_4_5_3_sb +0 p0_4_5 -1 p1_4_5 >= -1
+0 x_4_10_0 +1 x_4_10_1 +0 x_4_10_2 -1 x_4_10_3 -1 x_4_5_0_sb +0 x_4_5_1_sb -1 x_4_5_2_sb +0 x_4_5_3_sb +0 p0_4_5 -1 p1_4_5 >= -3
+0 x_4_10_0 +1 x_4_10_1 +1 x_4_10_2 +0 x_4_10_3 +0 x_4_5_0_sb +0 x_4_5_1_sb +1 x_4_5_2_sb -1 x_4_5_3_sb +0 p0_4_5 -1 p1_4_5 >= -1
-1 x_4_10_0 +0 x_4_10_1 -1 x_4_10_2 +0 x_4_10_3 -1 x_4_5_0_sb +0 x_4_5_1_sb +1 x_4_5_2_sb +0 x_4_5_3_sb +0 p0_4_5 -1 p1_4_5 >= -3
+0 x_4_10_0 -1 x_4_10_1 -1 x_4_10_2 +0 x_4_10_3 +0 x_4_5_0_sb +1 x_4_5_1_sb +0 x_4_5_2_sb +1 x_4_5_3_sb +0 p0_4_5 -1 p1_4_5 >= -2
+0 x_4_10_0 -1 x_4_10_1 +0 x_4_10_2 +0 x_4_10_3 +1 x_4_5_0_sb +1 x_4_5_1_sb +0 x_4_5_2_sb +1 x_4_5_3_sb +0 p0_4_5 +1 p1_4_5 >= 0
-1 x_4_10_0 -1 x_4_10_1 +0 x_4_10_2 +1 x_4_10_3 +0 x_4_5_0_sb +1 x_4_5_1_sb +0 x_4_5_2_sb +1 x_4_5_3_sb +0 p0_4_5 -1 p1_4_5 >= -2
+0 x_4_10_0 -1 x_4_10_1 +0 x_4_10_2 +0 x_4_10_3 +1 x_4_5_0_sb +0 x_4_5_1_sb +1 x_4_5_2_sb +1 x_4_5_3_sb +0 p0_4_5 -1 p1_4_5 >= -1
-1 x_4_10_0 +0 x_4_10_1 -1 x_4_10_2 +0 x_4_10_3 +1 x_4_5_0_sb +1 x_4_5_1_sb +0 x_4_5_2_sb +0 x_4_5_3_sb +0 p0_4_5 -1 p1_4_5 >= -2
+0 x_4_10_0 +1 x_4_10_1 -1 x_4_10_2 -1 x_4_10_3 +0 x_4_5_0_sb +0 x_4_5_1_sb +0 x_4_5_2_sb +1 x_4_5_3_sb +0 p0_4_5 -1 p1_4_5 >= -2
-1 x_4_10_0 -1 x_4_10_1 +0 x_4_10_2 -1 x_4_10_3 +0 x_4_5_0_sb +1 x_4_5_1_sb +0 x_4_5_2_sb -1 x_4_5_3_sb +0 p0_4_5 -1 p1_4_5 >= -4
-1 x_4_10_0 +1 x_4_10_1 +0 x_4_10_2 +1 x_4_10_3 +0 x_4_5_0_sb +1 x_4_5_1_sb +0 x_4_5_2_sb +1 x_4_5_3_sb +0 p0_4_5 +1 p1_4_5 >= 0
+0 x_4_10_0 +0 x_4_10_1 +0 x_4_10_2 +0 x_4_10_3 +1 x_4_5_0_sb -1 x_4_5_1_sb +0 x_4_5_2_sb -1 x_4_5_3_sb +0 p0_4_5 +1 p1_4_5 >= -1
+1 x_4_10_0 +0 x_4_10_1 +1 x_4_10_2 +0 x_4_10_3 +1 x_4_5_0_sb -1 x_4_5_1_sb +0 x_4_5_2_sb +0 x_4_5_3_sb +0 p0_4_5 -1 p1_4_5 >= -1
+0 x_4_10_0 +1 x_4_10_1 +0 x_4_10_2 +1 x_4_10_3 +0 x_4_5_0_sb -1 x_4_5_1_sb -1 x_4_5_2_sb +0 x_4_5_3_sb +0 p0_4_5 -1 p1_4_5 >= -2
+1 x_4_10_0 -1 x_4_10_1 +0 x_4_10_2 -1 x_4_10_3 +0 x_4_5_0_sb +0 x_4_5_1_sb +1 x_4_5_2_sb +0 x_4_5_3_sb +0 p0_4_5 +0 p1_4_5 >= -1
+1 x_4_10_0 -1 x_4_10_1 -1 x_4_10_2 +0 x_4_10_3 +0 x_4_5_0_sb +0 x_4_5_1_sb +1 x_4_5_2_sb -1 x_4_5_3_sb +0 p0_4_5 -1 p1_4_5 >= -3
+1 x_4_10_0 -1 x_4_10_1 +0 x_4_10_2 -1 x_4_10_3 +0 x_4_5_0_sb +0 x_4_5_1_sb +0 x_4_5_2_sb +0 x_4_5_3_sb +0 p0_4_5 +1 p1_4_5 >= -1
+1 x_4_10_0 +0 x_4_10_1 +0 x_4_10_2 +0 x_4_10_3 -1 x_4_5_0_sb +1 x_4_5_1_sb +0 x_4_5_2_sb -1 x_4_5_3_sb +0 p0_4_5 +1 p1_4_5 >= -1
+1 x_4_10_0 +0 x_4_10_1 +0 x_4_10_2 +0 x_4_10_3 -1 x_4_5_0_sb -1 x_4_5_1_sb +0 x_4_5_2_sb +1 x_4_5_3_sb +0 p0_4_5 +1 p1_4_5 >= -1
-1 x_4_10_0 -1 x_4_10_1 +0 x_4_10_2 +1 x_4_10_3 +1 x_4_5_0_sb +0 x_4_5_1_sb +0 x_4_5_2_sb +0 x_4_5_3_sb +0 p0_4_5 +1 p1_4_5 >= -1
-1 x_4_10_0 +1 x_4_10_1 +0 x_4_10_2 -1 x_4_10_3 +1 x_4_5_0_sb +0 x_4_5_1_sb +0 x_4_5_2_sb +0 x_4_5_3_sb +0 p0_4_5 +1 p1_4_5 >= -1
+0 x_4_10_0 -1 x_4_10_1 +0 x_4_10_2 -1 x_4_10_3 +0 x_4_5_0_sb -1 x_4_5_1_sb +0 x_4_5_2_sb -1 x_4_5_3_sb +0 p0_4_5 +1 p1_4_5 >= -3
+1 x_4_10_0 +1 x_4_10_1 +0 x_4_10_2 +1 x_4_10_3 +0 x_4_5_0_sb +0 x_4_5_1_sb -1 x_4_5_2_sb +0 x_4_5_3_sb +0 p0_4_5 +0 p1_4_5 >= 0
-1 x_4_10_0 +0 x_4_10_1 +1 x_4_10_2 -1 x_4_10_3 +0 x_4_5_0_sb -1 x_4_5_1_sb -1 x_4_5_2_sb +0 x_4_5_3_sb +0 p0_4_5 -1 p1_4_5 >= -4
+1 x_4_10_0 +1 x_4_10_1 +0 x_4_10_2 -1 x_4_10_3 +1 x_4_5_0_sb +1 x_4_5_1_sb +0 x_4_5_2_sb -1 x_4_5_3_sb +0 p0_4_5 -1 p1_4_5 >= -2
+1 x_4_10_0 +0 x_4_10_1 +1 x_4_10_2 +0 x_4_10_3 +0 x_4_5_0_sb +1 x_4_5_1_sb +1 x_4_5_2_sb +1 x_4_5_3_sb +0 p0_4_5 -1 p1_4_5 >= 0
+1 x_4_10_0 +0 x_4_10_1 -1 x_4_10_2 -1 x_4_10_3 -1 x_4_5_0_sb -1 x_4_5_1_sb +0 x_4_5_2_sb -1 x_4_5_3_sb +0 p0_4_5 -1 p1_4_5 >= -5
+0 x_4_10_0 +0 x_4_10_1 +1 x_4_10_2 +1 x_4_10_3 -1 x_4_5_0_sb +0 x_4_5_1_sb -1 x_4_5_2_sb +0 x_4_5_3_sb +0 p0_4_5 -1 p1_4_5 >= -2
+0 x_4_10_0 +0 x_4_10_1 +1 x_4_10_2 +0 x_4_10_3 +1 x_4_5_0_sb -1 x_4_5_1_sb +0 x_4_5_2_sb -1 x_4_5_3_sb +0 p0_4_5 +0 p1_4_5 >= -1
+0 x_4_10_0 -1 x_4_10_1 +0 x_4_10_2 -1 x_4_10_3 +0 x_4_5_0_sb +1 x_4_5_1_sb +0 x_4_5_2_sb +1 x_4_5_3_sb +0 p0_4_5 +1 p1_4_5 >= -1
+0 x_4_10_0 +1 x_4_10_1 +0 x_4_10_2 +1 x_4_10_3 +0 x_4_5_0_sb -1 x_4_5_1_sb +0 x_4_5_2_sb -1 x_4_5_3_sb +0 p0_4_5 +1 p1_4_5 >= -1
+1 x_4_10_0 -1 x_4_10_1 +1 x_4_10_2 -1 x_4_10_3 +1 x_4_5_0_sb +0 x_4_5_1_sb +0 x_4_5_2_sb +0 x_4_5_3_sb +0 p0_4_5 +0 p1_4_5 >= -1
+1 x_4_10_0 +0 x_4_10_1 +0 x_4_10_2 +0 x_4_10_3 +1 x_4_5_0_sb -1 x_4_5_1_sb +1 x_4_5_2_sb -1 x_4_5_3_sb +0 p0_4_5 +0 p1_4_5 >= -1
+0 x_4_10_0 -1 x_4_10_1 +0 x_4_10_2 -1 x_4_10_3 +1 x_4_5_0_sb -1 x_4_5_1_sb -1 x_4_5_2_sb -1 x_4_5_3_sb +0 p0_4_5 +0 p1_4_5 >= -4
+1 x_4_10_0 +0 x_4_10_1 +0 x_4_10_2 +1 x_4_10_3 +0 x_4_5_0_sb -1 x_4_5_1_sb -1 x_4_5_2_sb +1 x_4_5_3_sb +0 p0_4_5 -1 p1_4_5 >= -2
+0 x_4_10_0 +0 x_4_10_1 -1 x_4_10_2 +1 x_4_10_3 -1 x_4_5_0_sb +1 x_4_5_1_sb +0 x_4_5_2_sb -1 x_4_5_3_sb +0 p0_4_5 -1 p1_4_5 >= -3
+0 x_4_10_0 +1 x_4_10_1 +0 x_4_10_2 +1 x_4_10_3 -1 x_4_5_0_sb -1 x_4_5_1_sb +0 x_4_5_2_sb +1 x_4_5_3_sb +0 p0_4_5 -1 p1_4_5 >= -2
-1 x_4_10_0 +1 x_4_10_1 +0 x_4_10_2 -1 x_4_10_3 +0 x_4_5_0_sb +0 x_4_5_1_sb -1 x_4_5_2_sb +1 x_4_5_3_sb +0 p0_4_5 -1 p1_4_5 >= -3
-1 x_4_10_0 +0 x_4_10_1 +0 x_4_10_2 +0 x_4_10_3 -1 x_4_5_0_sb +1 x_4_5_1_sb +0 x_4_5_2_sb -1 x_4_5_3_sb +0 p0_4_5 -1 p1_4_5 >= -3
+0 x_4_10_0 +0 x_4_10_1 -1 x_4_10_2 +0 x_4_10_3 +1 x_4_5_0_sb +1 x_4_5_1_sb +0 x_4_5_2_sb +1 x_4_5_3_sb +0 p0_4_5 +0 p1_4_5 >= 0
+0 x_4_12_0 +0 x_4_12_1 +0 x_4_12_2 +0 x_4_12_3 +0 x_4_6_0_sb +0 x_4_6_1_sb +0 x_4_6_2_sb +0 x_4_6_3_sb -1 p0_4_6 -1 p1_4_6 >= -1
+0 x_4_12_0 +0 x_4_12_1 +0 x_4_12_2 +0 x_4_12_3 +0 x_4_6_0_sb +0 x_4_6_1_sb +0 x_4_6_2_sb -1 x_4_6_3_sb +1 p0_4_6 +1 p1_4_6 >= 0
+0 x_4_12_0 +0 x_4_12_1 +0 x_4_12_2 +0 x_4_12_3 +0 x_4_6_0_sb -1 x_4_6_1_sb +0 x_4_6_2_sb +0 x_4_6_3_sb +1 p0_4_6 +1 p1_4_6 >= 0
+0 x_4_12_0 +0 x_4_12_1 +0 x_4_12_2 +0 x_4_12_3 -1 x_4_6_0_sb +0 x_4_6_1_sb +0 x_4_6_2_sb +0 x_4_6_3_sb +1 p0_4_6 +1 p1_4_6 >= 0
+0 x_4_12_0 +0 x_4_12_1 +0 x_4_12_2 +0 x_4_12_3 +1 x_4_6_0_sb +1 x_4_6_1_sb +1 x_4_6_2_sb +1 x_4_6_3_sb +0 p0_4_6 -1 p1_4_6 >= 0
+0 x_4_12_0 +0 x_4_12_1 +0 x_4_12_2 -1 x_4_12_3 +1 x_4_6_0_sb +1 x_4_6_1_sb +0 x_4_6_2_sb +1 x_4_6_3_sb +0 p0_4_6 +1 p1_4_6 >= 0
-1 x_4_12_0 +0 x_4_12_1 -1 x_4_12_2 +0 x_4_12_3 +1 x_4_6_0_sb +0 x_4_6_1_sb +0 x_4_6_2_sb +1 x_4_6_3_sb +0 p0_4_6 -1 p1_4_6 >= -2
+1 x_4_12_0 +0 x_4_12_1 +1 x_4_12_2 +0 x_4_12_3 +1 x_4_6_0_sb +0 x_4_6_1_sb +1 x_4_6_2_sb +0 x_4_6_3_sb +0 p0_4_6 -1 p1_4_6 >= 0
+0 x_4_12_0 +0 x_4_12_1 +0 x_4_12_2 +1 x_4_12_3 +0 x_4_6_0_sb +1 x_4_6_1_sb -1 x_4_6_2_sb -1 x_4_6_3_sb +0 p0_4_6 -1 p1_4_6 >= -2
-1 x_4_12_0 +0 x_4_12_1 +0 x_4_12_2 -1 x_4_12_3 -1 x_4_6_0_sb +0 x_4_6_1_sb +0 x_4_6_2_sb +1 x_4_6_3_sb +0 p0_4_6 -1 p1_4_6 >= -3
+0 x_4_12_0 +0 x_4_12_1 +0 x_4_12_2 +1 x_4_12_3 -1 x_4_6_0_sb -1 x_4_6_1_sb -1 x_4_6_2_sb +0 x_4_6_3_sb +0 p0_4_6 -1 p1_4_6 >= -3
+1 x_4_12_0 +1 x_4_12_1 +0 x_4_12_2 +1 x_4_12_3 +0 x_4_6_0_sb +0 x_4_6_1_sb +0 x_4_6_2_sb +0 x_4_6_3_sb -1 p0_4_6 +0 p1_4_6 >= 0
+0 x_4_12_0 +0 x_4_12_1 +1 x_4_12_2 +1 x_4_12_3 +0 x_4_6_0_sb -1 x_4_6_1_sb +1 x_4_6_2_sb +0 x_4_6_3_sb +0 p0_4_6 -1 p1_4_6 >= -1
+0 x_4_12_0 +1 x_4_12_1 +0 x_4_12_2 -1 x_4_12_3 -1 x_4_6_0_sb +0 x_4_6_1_sb -1 x_4_6_2_sb +0 x_4_6_3_sb +0 p0_4_6 -1 p1_4_6 >= -3
+0 x_4_12_0 +1 x_4_12_1 +1 x_4_12_2 +0 x_4_12_3 +0 x_4_6_0_sb +0 x_4_6_1_sb +1 x_4_6_2_sb -1 x_4_6_3_sb +0 p0_4_6 -1 p1_4_6 >= -1
-1 x_4_12_0 +0 x_4_12_1 -1 x_4_12_2 +0 x_4_12_3 -1 x_4_6_0_sb +0 x_4_6_1_sb +1 x_4_6_2_sb +0 x_4_6_3_sb +0 p0_4_6 -1 p1_4_6 >= -3
+0 x_4_12_0 -1 x_4_12_1 -1 x_4_12_2 +0 x_4_12_3 +0 x_4_6_0_sb +1 x_4_6_1_sb +0 x_4_6_2_sb +1 x_4_6_3_sb +0 p0_4_6 -1 p1_4_6 >= -2
+0 x_4_12_0 -1 x_4_12_1 +0 x_4_12_2 +0 x_4_12_3 +1 x_4_6_0_sb +1 x_4_6_1_sb +0 x_4_6_2_sb +1 x_4_6_3_sb +0 p0_4_6 +1 p1_4_6 >= 0
-1 x_4_12_0 -1 x_4_12_1 +0 x_4_12_2 +1 x_4_12_3 +0 x_4_6_0_sb +1 x_4_6_1_sb +0 x_4_6_2_sb +1 x_4_6_3_sb +0 p0_4_6 -1 p1_4_6 >= -2
+0 x_4_12_0 -1 x_4_12_1 +0 x_4_12_2 +0 x_4_12_3 +1 x_4_6_0_sb +0 x_4_6_1_sb +1 x_4_6_2_sb +1 x_4_6_3_sb +0 p0_4_6 -1 p1_4_6 >= -1
-1 x_4_12_0 +0 x_4_12_1 -1 x_4_12_2 +0 x_4_12_3 +1 x_4_6_0_sb +1 x_4_6_1_sb +0 x_4_6_2_sb +0 x_4_6_3_sb +0 p0_4_6 -1 p1_4_6 >= -2
+0 x_4_12_0 +1 x_4_12_1 -1 x_4_12_2 -1 x_4_12_3 +0 x_4_6_0_sb +0 x_4_6_1_sb +0 x_4_6_2_sb +1 x_4_6_3_sb +0 p0_4_6 -1 p1_4_6 >= -2
-1 x_4_12_0 -1 x_4_12_1 +0 x_4_12_2 -1 x_4_12_3 +0 x_4_6_0_sb +1 x_4_6_1_sb +0 x_4_6_2_sb -1 x_4_6_3_sb +0 p0_4_6 -1 p1_4_6 >= -4
-1 x_4_12_0 +1 x_4_12_1 +0 x_4_12_2 +1 x_4_12_3 +0 x_4_6_0_sb +1 x_4_6_1_sb +0 x_4_6_2_sb +1 x_4_6_3_sb +0 p0_4_6 +1 p1_4_6 >= 0
+0 x_4_12_0 +0 x_4_12_1 +0 x_4_12_2 +0 x_4_12_3 +1 x_4_6_0_sb -1 x_4_6_1_sb +0 x_4_6_2_sb -1 x_4_6_3_sb +0 p0_4_6 +1 p1_4_6 >= -1
+1 x_4_12_0 +0 x_4_12_1 +1 x_4_12_2 +0 x_4_12_3 +1 x_4_6_0_sb -1 x_4_6_1_sb +0 x_4_6_2_sb +0 x_4_6_3_sb +0 p0_4_6 -1 p1_4_6 >= -1
+0 x_4_12_0 +1 x_4_12_1 +0 x_4_12_2 +1 x_4_12_3 +0 x_4_6_0_sb -1 x_4_6_1_sb -1 x_4_6_2_sb +0 x_4_6_3_sb +0 p0_4_6 -1 p1_4_6 >= -2
+1 x_4_12_0 -1 x_4_12_1 +0 x_4_12_2 -1 x_4_12_3 +0 x_4_6_0_sb +0 x_4_6_1_sb +1 x_4_6_2_sb +0 x_4_6_3_sb +0 p0_4_6 +0 p1_4_6 >= -1
+1 x_4_12_0 -1 x_4_12_1 -1 x_4_12_2 +0 x_4_12_3 +0 x_4_6_0_sb +0 x_4_6_1_sb +1 x_4_6_2_sb -1 x_4_6_3_sb +0 p0_4_6 -1 p1_4_6 >= -3
+1 x_4_12_0 -1 x_4_12_1 +0 x_4_12_2 -1 x_4_12_3 +0 x_4_6_0_sb +0 x_4_6_1_sb +0 x_4_6_2_sb +0 x_4_6_3_sb +0 p0_4_6 +1 p1_4_6 >= -1
+1 x_4_12_0 +0 x_4_12_1 +0 x_4_12_2 +0 x_4_12_3 -1 x_4_6_0_sb +1 x_4_6_1_sb +0 x_4_6_2_sb -1 x_4_6_3_sb +0 p0_4_6 +1 p1_4_6 >= -1
+1 x_4_12_0 +0 x_4_12_1 +0 x_4_12_2 +0 x_4_12_3 -1 x_4_6_0_sb -1 x_4_6_1_sb +0 x_4_6_2_sb +1 x_4_6_3_sb +0 p0_4_6 +1 p1_4_6 >= -1
-1 x_4_12_0 -1 x_4_12_1 +0 x_4_12_2 +1 x_4_12_3 +1 x_4_6_0_sb +0 x_4_6_1_sb +0 x_4_6_2_sb +0 x_4_6_3_sb +0 p0_4_6 +1 p1_4_6 >= -1
-1 x_4_12_0 +1 x_4_12_1 +0 x_4_12_2 -1 x_4_12_3 +1 x_4_6_0_sb +0 x_4_6_1_sb +0 x_4_6_2_sb +0 x_4_6_3_sb +0 p0_4_6 +1 p1_4_6 >= -1
+0 x_4_12_0 -1 x_4_12_1 +0 x_4_12_2 -1 x_4_12_3 +0 x_4_6_0_sb -1 x_4_6_1_sb +0 x_4_6_2_sb -1 x_4_6_3_sb +0 p0_4_6 +1 p1_4_6 >= -3
+1 x_4_12_0 +1 x_4_12_1 +0 x_4_12_2 +1 x_4_12_3 +0 x_4_6_0_sb +0 x_4_6_1_sb -1 x_4_6_2_sb +0 x_4_6_3_sb +0 p0_4_6 +0 p1_4_6 >= 0
-1 x_4_12_0 +0 x_4_12_1 +1 x_4_12_2 -1 x_4_12_3 +0 x_4_6_0_sb -1 x_4_6_1_sb -1 x_4_6_2_sb +0 x_4_6_3_sb +0 p0_4_6 -1 p1_4_6 >= -4
+1 x_4_12_0 +1 x_4_12_1 +0 x_4_12_2 -1 x_4_12_3 +1 x_4_6_0_sb +1 x_4_6_1_sb +0 x_4_6_2_sb -1 x_4_6_3_sb +0 p0_4_6 -1 p1_4_6 >= -2
+1 x_4_12_0 +0 x_4_12_1 +1 x_4_12_2 +0 x_4_12_3 +0 x_4_6_0_sb +1 x_4_6_1_sb +1 x_4_6_2_sb +1 x_4_6_3_sb +0 p0_4_6 -1 p1_4_6 >= 0
+1 x_4_12_0 +0 x_4_12_1 -1 x_4_12_2 -1 x_4_12_3 -1 x_4_6_0_sb -1 x_4_6_1_sb +0 x_4_6_2_sb -1 x_4_6_3_sb +0 p0_4_6 -1 p1_4_6 >= -5
+0 x_4_12_0 +0 x_4_12_1 +1 x_4_12_2 +1 x_4_12_3 -1 x_4_6_0_sb +0 x_4_6_1_sb -1 x_4_6_2_sb +0 x_4_6_3_sb +0 p0_4_6 -1 p1_4_6 >= -2
+0 x_4_12_0 +0 x_4_12_1 +1 x_4_12_2 +0 x_4_12_3 +1 x_4_6_0_sb -1 x_4_6_1_sb +0 x_4_6_2_sb -1 x_4_6_3_sb +0 p0_4_6 +0 p1_4_6 >= -1
+0 x_4_12_0 -1 x_4_12_1 +0 x_4_12_2 -1 x_4_12_3 +0 x_4_6_0_sb +1 x_4_6_1_sb +0 x_4_6_2_sb +1 x_4_6_3_sb +0 p0_4_6 +1 p1_4_6 >= -1
+0 x_4_12_0 +1 x_4_12_1 +0 x_4_12_2 +1 x_4_12_3 +0 x_4_6_0_sb -1 x_4_6_1_sb +0 x_4_6_2_sb -1 x_4_6_3_sb +0 p0_4_6 +1 p1_4_6 >= -1
+1 x_4_12_0 -1 x_4_12_1 +1 x_4_12_2 -1 x_4_12_3 +1 x_4_6_0_sb +0 x_4_6_1_sb +0 x_4_6_2_sb +0 x_4_6_3_sb +0 p0_4_6 +0 p1_4_6 >= -1
+1 x_4_12_0 +0 x_4_12_1 +0 x_4_12_2 +0 x_4_12_3 +1 x_4_6_0_sb -1 x_4_6_1_sb +1 x_4_6_2_sb -1 x_4_6_3_sb +0 p0_4_6 +0 p1_4_6 >= -1
+0 x_4_12_0 -1 x_4_12_1 +0 x_4_12_2 -1 x_4_12_3 +1 x_4_6_0_sb -1 x_4_6_1_sb -1 x_4_6_2_sb -1 x_4_6_3_sb +0 p0_4_6 +0 p1_4_6 >= -4
+1 x_4_12_0 +0 x_4_12_1 +0 x_4_12_2 +1 x_4_12_3 +0 x_4_6_0_sb -1 x_4_6_1_sb -1 x_4_6_2_sb +1 x_4_6_3_sb +0 p0_4_6 -1 p1_4_6 >= -2
+0 x_4_12_0 +0 x_4_12_1 -1 x_4_12_2 +1 x_4_12_3 -1 x_4_6_0_sb +1 x_4_6_1_sb +0 x_4_6_2_sb -1 x_4_6_3_sb +0 p0_4_6 -1 p1_4_6 >= -3
+0 x_4_12_0 +1 x_4_12_1 +0 x_4_12_2 +1 x_4_12_3 -1 x_4_6_0_sb -1 x_4_6_1_sb +0 x_4_6_2_sb +1 x_4_6_3_sb +0 p0_4_6 -1 p1_4_6 >= -2
-1 x_4_12_0 +1 x_4_12_1 +0 x_4_12_2 -1 x_4_12_3 +0 x_4_6_0_sb +0 x_4_6_1_sb -1 x_4_6_2_sb +1 x_4_6_3_sb +0 p0_4_6 -1 p1_4_6 >= -3
-1 x_4_12_0 +0 x_4_12_1 +0 x_4_12_2 +0 x_4_12_3 -1 x_4_6_0_sb +1 x_4_6_1_sb +0 x_4_6_2_sb -1 x_4_6_3_sb +0 p0_4_6 -1 p1_4_6 >= -3
+0 x_4_12_0 +0 x_4_12_1 -1 x_4_12_2 +0 x_4_12_3 +1 x_4_6_0_sb +1 x_4_6_1_sb +0 x_4_6_2_sb +1 x_4_6_3_sb +0 p0_4_6 +0 p1_4_6 >= 0
+0 x_4_14_0 +0 x_4_14_1 +0 x_4_14_2 +0 x_4_14_3 +0 x_4_7_0_sb +0 x_4_7_1_sb +0 x_4_7_2_sb +0 x_4_7_3_sb -1 p0_4_7 -1 p1_4_7 >= -1
+0 x_4_14_0 +0 x_4_14_1 +0 x_4_14_2 +0 x_4_14_3 +0 x_4_7_0_sb +0 x_4_7_1_sb +0 x_4_7_2_sb -1 x_4_7_3_sb +1 p0_4_7 +1 p1_4_7 >= 0
+0 x_4_14_0 +0 x_4_14_1 +0 x_4_14_2 +0 x_4_14_3 +0 x_4_7_0_sb -1 x_4_7_1_sb +0 x_4_7_2_sb +0 x_4_7_3_sb +1 p0_4_7 +1 p1_4_7 >= 0
+0 x_4_14_0 +0 x_4_14_1 +0 x_4_14_2 +0 x_4_14_3 -1 x_4_7_0_sb +0 x_4_7_1_sb +0 x_4_7_2_sb +0 x_4_7_3_sb +1 p0_4_7 +1 p1_4_7 >= 0
+0 x_4_14_0 +0 x_4_14_1 +0 x_4_14_2 +0 x_4_14_3 +1 x_4_7_0_sb +1 x_4_7_1_sb +1 x_4_7_2_sb +1 x_4_7_3_sb +0 p0_4_7 -1 p1_4_7 >= 0
+0 x_4_14_0 +0 x_4_14_1 +0 x_4_14_2 -1 x_4_14_3 +1 x_4_7_0_sb +1 x_4_7_1_sb +0 x_4_7_2_sb +1 x_4_7_3_sb +0 p0_4_7 +1 p1_4_7 >= 0
-1 x_4_14_0 +0 x_4_14_1 -1 x_4_14_2 +0 x_4_14_3 +1 x_4_7_0_sb +0 x_4_7_1_sb +0 x_4_7_2_sb +1 x_4_7_3_sb +0 p0_4_7 -1 p1_4_7 >= -2
+1 x_4_14_0 +0 x_4_14_1 +1 x_4_14_2 +0 x_4_14_3 +1 x_4_7_0_sb +0 x_4_7_1_sb +1 x_4_7_2_sb +0 x_4_7_3_sb +0 p0_4_7 -1 p1_4_7 >= 0
+0 x_4_14_0 +0 x_4_14_1 +0 x_4_14_2 +1 x_4_14_3 +0 x_4_7_0_sb +1 x_4_7_1_sb -1 x_4_7_2_sb -1 x_4_7_3_sb +0 p0_4_7 -1 p1_4_7 >= -2
-1 x_4_14_0 +0 x_4_14_1 +0 x_4_14_2 -1 x_4_14_3 -1 x_4_7_0_sb +0 x_4_7_1_sb +0 x_4_7_2_sb +1 x_4_7_3_sb +0 p0_4_7 -1 p1_4_7 >= -3
+0 x_4_14_0 +0 x_4_14_1 +0 x_4_14_2 +1 x_4_14_3 -1 x_4_7_0_sb -1 x_4_7_1_sb -1 x_4_7_2_sb +0 x_4_7_3_sb +0 p0_4_7 -1 p1_4_7 >= -3
+1 x_4_14_0 +1 x_4_14_1 +0 x_4_14_2 +1 x_4_14_3 +0 x_4_7_0_sb +0 x_4_7_1_sb +0 x_4_7_2_sb +0 x_4_7_3_sb -1 p0_4_7 +0 p1_4_7 >= 0
+0 x_4_14_0 +0 x_4_14_1 +1 x_4_14_2 +1 x_4_14_3 +0 x_4_7_0_sb -1 x_4_7_1_sb +1 x_4_7_2_sb +0 x_4_7_3_sb +0 p0_4_7 -1 p1_4_7 >= -1
+0 x_4_14_0 +1 x_4_14_1 +0 x_4_14_2 -1 x_4_14_3 -1 x_4_7_0_sb +0 x_4_7_1_sb -1 x_4_7_2_sb +0 x_4_7_3_sb +0 p0_4_7 -1 p1_4_7 >= -3
+0 x_4_14_0 +1 x_4_14_1 +1 x_4_14_2 +0 x_4_14_3 +0 x_4_7_0_sb +0 x_4_7_1_sb +1 x_4_7_2_sb -1 x_4_7_3_sb +0 p0_4_7 -1 p1_4_7 >= -1
-1 x_4_14_0 +0 x_4_14_1 -1 x_4_14_2 +0 x_4_14_3 -1 x_4_7_0_sb +0 x_4_7_1_sb +1 x_4_7_2_sb +0 x_4_7_3_sb +0 p0_4_7 -1 p1_4_7 >= -3
+0 x_4_14_0 -1 x_4_14_1 -1 x_4_14_2 +0 x_4_14_3 +0 x_4_7_0_sb +1 x_4_7_1_sb +0 x_4_7_2_sb +1 x_4_7_3_sb +0 p0_4_7 -1 p1_4_7 >= -2
+0 x_4_14_0 -1 x_4_14_1 +0 x_4_14_2 +0 x_4_14_3 +1 x_4_7_0_sb +1 x_4_7_1_sb +0 x_4_7_2_sb +1 x_4_7_3_sb +0 p0_4_7 +1 p1_4_7 >= 0
-1 x_4_14_0 -1 x_4_14_1 +0 x_4_14_2 +1 x_4_14_3 +0 x_4_7_0_sb +1 x_4_7_1_sb +0 x_4_7_2_sb +1 x_4_7_3_sb +0 p0_4_7 -1 p1_4_7 >= -2
+0 x_4_14_0 -1 x_4_14_1 +0 x_4_14_2 +0 x_4_14_3 +1 x_4_7_0_sb +0 x_4_7_1_sb +1 x_4_7_2_sb +1 x_4_7_3_sb +0 p0_4_7 -1 p1_4_7 >= -1
-1 x_4_14_0 +0 x_4_14_1 -1 x_4_14_2 +0 x_4_14_3 +1 x_4_7_0_sb +1 x_4_7_1_sb +0 x_4_7_2_sb +0 x_4_7_3_sb +0 p0_4_7 -1 p1_4_7 >= -2
+0 x_4_14_0 +1 x_4_14_1 -1 x_4_14_2 -1 x_4_14_3 +0 x_4_7_0_sb +0 x_4_7_1_sb +0 x_4_7_2_sb +1 x_4_7_3_sb +0 p0_4_7 -1 p1_4_7 >= -2
-1 x_4_14_0 -1 x_4_14_1 +0 x_4_14_2 -1 x_4_14_3 +0 x_4_7_0_sb +1 x_4_7_1_sb +0 x_4_7_2_sb -1 x_4_7_3_sb +0 p0_4_7 -1 p1_4_7 >= -4
-1 x_4_14_0 +1 x_4_14_1 +0 x_4_14_2 +1 x_4_14_3 +0 x_4_7_0_sb +1 x_4_7_1_sb +0 x_4_7_2_sb +1 x_4_7_3_sb +0 p0_4_7 +1 p1_4_7 >= 0
+0 x_4_14_0 +0 x_4_14_1 +0 x_4_14_2 +0 x_4_14_3 +1 x_4_7_0_sb -1 x_4_7_1_sb +0 x_4_7_2_sb -1 x_4_7_3_sb +0 p0_4_7 +1 p1_4_7 >= -1
+1 x_4_14_0 +0 x_4_14_1 +1 x_4_14_2 +0 x_4_14_3 +1 x_4_7_0_sb -1 x_4_7_1_sb +0 x_4_7_2_sb +0 x_4_7_3_sb +0 p0_4_7 -1 p1_4_7 >= -1
+0 x_4_14_0 +1 x_4_14_1 +0 x_4_14_2 +1 x_4_14_3 +0 x_4_7_0_sb -1 x_4_7_1_sb -1 x_4_7_2_sb +0 x_4_7_3_sb +0 p0_4_7 -1 p1_4_7 >= -2
+1 x_4_14_0 -1 x_4_14_1 +0 x_4_14_2 -1 x_4_14_3 +0 x_4_7_0_sb +0 x_4_7_1_sb +1 x_4_7_2_sb +0 x_4_7_3_sb +0 p0_4_7 +0 p1_4_7 >= -1
+1 x_4_14_0 -1 x_4_14_1 -1 x_4_14_2 +0 x_4_14_3 +0 x_4_7_0_sb +0 x_4_7_1_sb +1 x_4_7_2_sb -1 x_4_7_3_sb +0 p0_4_7 -1 p1_4_7 >= -3
+1 x_4_14_0 -1 x_4_14_1 +0 x_4_14_2 -1 x_4_14_3 +0 x_4_7_0_sb +0 x_4_7_1_sb +0 x_4_7_2_sb +0 x_4_7_3_sb +0 p0_4_7 +1 p1_4_7 >= -1
+1 x_4_14_0 +0 x_4_14_1 +0 x_4_14_2 +0 x_4_14_3 -1 x_4_7_0_sb +1 x_4_7_1_sb +0 x_4_7_2_sb -1 x_4_7_3_sb +0 p0_4_7 +1 p1_4_7 >= -1
+1 x_4_14_0 +0 x_4_14_1 +0 x_4_14_2 +0 x_4_14_3 -1 x_4_7_0_sb -1 x_4_7_1_sb +0 x_4_7_2_sb +1 x_4_7_3_sb +0 p0_4_7 +1 p1_4_7 >= -1
-1 x_4_14_0 -1 x_4_14_1 +0 x_4_14_2 +1 x_4_14_3 +1 x_4_7_0_sb +0 x_4_7_1_sb +0 x_4_7_2_sb +0 x_4_7_3_sb +0 p0_4_7 +1 p1_4_7 >= -1
-1 x_4_14_0 +1 x_4_14_1 +0 x_4_14_2 -1 x_4_14_3 +1 x_4_7_0_sb +0 x_4_7_1_sb +0 x_4_7_2_sb +0 x_4_7_3_sb +0 p0_4_7 +1 p1_4_7 >= -1
+0 x_4_14_0 -1 x_4_14_1 +0 x_4_14_2 -1 x_4_14_3 +0 x_4_7_0_sb -1 x_4_7_1_sb +0 x_4_7_2_sb -1 x_4_7_3_sb +0 p0_4_7 +1 p1_4_7 >= -3
+1 x_4_14_0 +1 x_4_14_1 +0 x_4_14_2 +1 x_4_14_3 +0 x_4_7_0_sb +0 x_4_7_1_sb -1 x_4_7_2_sb +0 x_4_7_3_sb +0 p0_4_7 +0 p1_4_7 >= 0
-1 x_4_14_0 +0 x_4_14_1 +1 x_4_14_2 -1 x_4_14_3 +0 x_4_7_0_sb -1 x_4_7_1_sb -1 x_4_7_2_sb +0 x_4_7_3_sb +0 p0_4_7 -1 p1_4_7 >= -4
+1 x_4_14_0 +1 x_4_14_1 +0 x_4_14_2 -1 x_4_14_3 +1 x_4_7_0_sb +1 x_4_7_1_sb +0 x_4_7_2_sb -1 x_4_7_3_sb +0 p0_4_7 -1 p1_4_7 >= -2
+1 x_4_14_0 +0 x_4_14_1 +1 x_4_14_2 +0 x_4_14_3 +0 x_4_7_0_sb +1 x_4_7_1_sb +1 x_4_7_2_sb +1 x_4_7_3_sb +0 p0_4_7 -1 p1_4_7 >= 0
+1 x_4_14_0 +0 x_4_14_1 -1 x_4_14_2 -1 x_4_14_3 -1 x_4_7_0_sb -1 x_4_7_1_sb +0 x_4_7_2_sb -1 x_4_7_3_sb +0 p0_4_7 -1 p1_4_7 >= -5
+0 x_4_14_0 +0 x_4_14_1 +1 x_4_14_2 +1 x_4_14_3 -1 x_4_7_0_sb +0 x_4_7_1_sb -1 x_4_7_2_sb +0 x_4_7_3_sb +0 p0_4_7 -1 p1_4_7 >= -2
+0 x_4_14_0 +0 x_4_14_1 +1 x_4_14_2 +0 x_4_14_3 +1 x_4_7_0_sb -1 x_4_7_1_sb +0 x_4_7_2_sb -1 x_4_7_3_sb +0 p0_4_7 +0 p1_4_7 >= -1
+0 x_4_14_0 -1 x_4_14_1 +0 x_4_14_2 -1 x_4_14_3 +0 x_4_7_0_sb +1 x_4_7_1_sb +0 x_4_7_2_sb +1 x_4_7_3_sb +0 p0_4_7 +1 p1_4_7 >= -1
+0 x_4_14_0 +1 x_4_14_1 +0 x_4_14_2 +1 x_4_14_3 +0 x_4_7_0_sb -1 x_4_7_1_sb +0 x_4_7_2_sb -1 x_4_7_3_sb +0 p0_4_7 +1 p1_4_7 >= -1
+1 x_4_14_0 -1 x_4_14_1 +1 x_4_14_2 -1 x_4_14_3 +1 x_4_7_0_sb +0 x_4_7_1_sb +0 x_4_7_2_sb +0 x_4_7_3_sb +0 p0_4_7 +0 p1_4_7 >= -1
+1 x_4_14_0 +0 x_4_14_1 +0 x_4_14_2 +0 x_4_14_3 +1 x_4_7_0_sb -1 x_4_7_1_sb +1 x_4_7_2_sb -1 x_4_7_3_sb +0 p0_4_7 +0 p1_4_7 >= -1
+0 x_4_14_0 -1 x_4_14_1 +0 x_4_14_2 -1 x_4_14_3 +1 x_4_7_0_sb -1 x_4_7_1_sb -1 x_4_7_2_sb -1 x_4_7_3_sb +0 p0_4_7 +0 p1_4_7 >= -4
+1 x_4_14_0 +0 x_4_14_1 +0 x_4_14_2 +1 x_4_14_3 +0 x_4_7_0_sb -1 x_4_7_1_sb -1 x_4_7_2_sb +1 x_4_7_3_sb +0 p0_4_7 -1 p1_4_7 >= -2
+0 x_4_14_0 +0 x_4_14_1 -1 x_4_14_2 +1 x_4_14_3 -1 x_4_7_0_sb +1 x_4_7_1_sb +0 x_4_7_2_sb -1 x_4_7_3_sb +0 p0_4_7 -1 p1_4_7 >= -3
+0 x_4_14_0 +1 x_4_14_1 +0 x_4_14_2 +1 x_4_14_3 -1 x_4_7_0_sb -1 x_4_7_1_sb +0 x_4_7_2_sb +1 x_4_7_3_sb +0 p0_4_7 -1 p1_4_7 >= -2
-1 x_4_14_0 +1 x_4_14_1 +0 x_4_14_2 -1 x_4_14_3 +0 x_4_7_0_sb +0 x_4_7_1_sb -1 x_4_7_2_sb +1 x_4_7_3_sb +0 p0_4_7 -1 p1_4_7 >= -3
-1 x_4_14_0 +0 x_4_14_1 +0 x_4_14_2 +0 x_4_14_3 -1 x_4_7_0_sb +1 x_4_7_1_sb +0 x_4_7_2_sb -1 x_4_7_3_sb +0 p0_4_7 -1 p1_4_7 >= -3
+0 x_4_14_0 +0 x_4_14_1 -1 x_4_14_2 +0 x_4_14_3 +1 x_4_7_0_sb +1 x_4_7_1_sb +0 x_4_7_2_sb +1 x_4_7_3_sb +0 p0_4_7 +0 p1_4_7 >= 0
+0 x_4_16_0 +0 x_4_16_1 +0 x_4_16_2 +0 x_4_16_3 +0 x_4_8_0_sb +0 x_4_8_1_sb +0 x_4_8_2_sb +0 x_4_8_3_sb -1 p0_4_8 -1 p1_4_8 >= -1
+0 x_4_16_0 +0 x_4_16_1 +0 x_4_16_2 +0 x_4_16_3 +0 x_4_8_0_sb +0 x_4_8_1_sb +0 x_4_8_2_sb -1 x_4_8_3_sb +1 p0_4_8 +1 p1_4_8 >= 0
+0 x_4_16_0 +0 x_4_16_1 +0 x_4_16_2 +0 x_4_16_3 +0 x_4_8_0_sb -1 x_4_8_1_sb +0 x_4_8_2_sb +0 x_4_8_3_sb +1 p0_4_8 +1 p1_4_8 >= 0
+0 x_4_16_0 +0 x_4_16_1 +0 x_4_16_2 +0 x_4_16_3 -1 x_4_8_0_sb +0 x_4_8_1_sb +0 x_4_8_2_sb +0 x_4_8_3_sb +1 p0_4_8 +1 p1_4_8 >= 0
+0 x_4_16_0 +0 x_4_16_1 +0 x_4_16_2 +0 x_4_16_3 +1 x_4_8_0_sb +1 x_4_8_1_sb +1 x_4_8_2_sb +1 x_4_8_3_sb +0 p0_4_8 -1 p1_4_8 >= 0
+0 x_4_16_0 +0 x_4_16_1 +0 x_4_16_2 -1 x_4_16_3 +1 x_4_8_0_sb +1 x_4_8_1_sb +0 x_4_8_2_sb +1 x_4_8_3_sb +0 p0_4_8 +1 p1_4_8 >= 0
-1 x_4_16_0 +0 x_4_16_1 -1 x_4_16_2 +0 x_4_16_3 +1 x_4_8_0_sb +0 x_4_8_1_sb +0 x_4_8_2_sb +1 x_4_8_3_sb +0 p0_4_8 -1 p1_4_8 >= -2
+1 x_4_16_0 +0 x_4_16_1 +1 x_4_16_2 +0 x_4_16_3 +1 x_4_8_0_sb +0 x_4_8_1_sb +1 x_4_8_2_sb +0 x_4_8_3_sb +0 p0_4_8 -1 p1_4_8 >= 0
+0 x_4_16_0 +0 x_4_16_1 +0 x_4_16_2 +1 x_4_16_3 +0 x_4_8_0_sb +1 x_4_8_1_sb -1 x_4_8_2_sb -1 x_4_8_3_sb +0 p0_4_8 -1 p1_4_8 >= -2
-1 x_4_16_0 +0 x_4_16_1 +0 x_4_16_2 -1 x_4_16_3 -1 x_4_8_0_sb +0 x_4_8_1_sb +0 x_4_8_2_sb +1 x_4_8_3_sb +0 p0_4_8 -1 p1_4_8 >= -3
+0 x_4_16_0 +0 x_4_16_1 +0 x_4_16_2 +1 x_4_16_3 -1 x_4_8_0_sb -1 x_4_8_1_sb -1 x_4_8_2_sb +0 x_4_8_3_sb +0 p0_4_8 -1 p1_4_8 >= -3
+1 x_4_16_0 +1 x_4_16_1 +0 x_4_16_2 +1 x_4_16_3 +0 x_4_8_0_sb +0 x_4_8_1_sb +0 x_4_8_2_sb +0 x_4_8_3_sb -1 p0_4_8 +0 p1_4_8 >= 0
+0 x_4_16_0 +0 x_4_16_1 +1 x_4_16_2 +1 x_4_16_3 +0 x_4_8_0_sb -1 x_4_8_1_sb +1 x_4_8_2_sb +0 x_4_8_3_sb +0 p0_4_8 -1 p1_4_8 >= -1
+0 x_4_16_0 +1 x_4_16_1 +0 x_4_16_2 -1 x_4_16_3 -1 x_4_8_0_sb +0 x_4_8_1_sb -1 x_4_8_2_sb +0 x_4_8_3_sb +0 p0_4_8 -1 p1_4_8 >= -3
+0 x_4_16_0 +1 x_4_16_1 +1 x_4_16_2 +0 x_4_16_3 +0 x_4_8_0_sb +0 x_4_8_1_sb +1 x_4_8_2_sb -1 x_4_8_3_sb +0 p0_4_8 -1 p1_4_8 >= -1
-1 x_4_16_0 +0 x_4_16_1 -1 x_4_16_2 +0 x_4_16_3 -1 x_4_8_0_sb +0 x_4_8_1_sb +1 x_4_8_2_sb +0 x_4_8_3_sb +0 p0_4_8 -1 p1_4_8 >= -3
+0 x_4_16_0 -1 x_4_16_1 -1 x_4_16_2 +0 x_4_16_3 +0 x_4_8_0_sb +1 x_4_8_1_sb +0 x_4_8_2_sb +1 x_4_8_3_sb +0 p0_4_8 -1 p1_4_8 >= -2
+0 x_4_16_0 -1 x_4_16_1 +0 x_4_16_2 +0 x_4_16_3 +1 x_4_8_0_sb +1 x_4_8_1_sb +0 x_4_8_2_sb +1 x_4_8_3_sb +0 p0_4_8 +1 p1_4_8 >= 0
-1 x_4_16_0 -1 x_4_16_1 +0 x_4_16_2 +1 x_4_16_3 +0 x_4_8_0_sb +1 x_4_8_1_sb +0 x_4_8_2_sb +1 x_4_8_3_sb +0 p0_4_8 -1 p1_4_8 >= -2
+0 x_4_16_0 -1 x_4_16_1 +0 x_4_16_2 +0 x_4_16_3 +1 x_4_8_0_sb +0 x_4_8_1_sb +1 x_4_8_2_sb +1 x_4_8_3_sb +0 p0_4_8 -1 p1_4_8 >= -1
-1 x_4_16_0 +0 x_4_16_1 -1 x_4_16_2 +0 x_4_16_3 +1 x_4_8_0_sb +1 x_4_8_1_sb +0 x_4_8_2_sb +0 x_4_8_3_sb +0 p0_4_8 -1 p1_4_8 >= -2
+0 x_4_16_0 +1 x_4_16_1 -1 x_4_16_2 -1 x_4_16_3 +0 x_4_8_0_sb +0 x_4_8_1_sb +0 x_4_8_2_sb +1 x_4_8_3_sb +0 p0_4_8 -1 p1_4_8 >= -2
-1 x_4_16_0 -1 x_4_16_1 +0 x_4_16_2 -1 x_4_16_3 +0 x_4_8_0_sb +1 x_4_8_1_sb +0 x_4_8_2_sb -1 x_4_8_3_sb +0 p0_4_8 -1 p1_4_8 >= -4
-1 x_4_16_0 +1 x_4_16_1 +0 x_4_16_2 +1 x_4_16_3 +0 x_4_8_0_sb +1 x_4_8_1_sb +0 x_4_8_2_sb +1 x_4_8_3_sb +0 p0_4_8 +1 p1_4_8 >= 0
+0 x_4_16_0 +0 x_4_16_1 +0 x_4_16_2 +0 x_4_16_3 +1 x_4_8_0_sb -1 x_4_8_1_sb +0 x_4_8_2_sb -1 x_4_8_3_sb +0 p0_4_8 +1 p1_4_8 >= -1
+1 x_4_16_0 +0 x_4_16_1 +1 x_4_16_2 +0 x_4_16_3 +1 x_4_8_0_sb -1 x_4_8_1_sb +0 x_4_8_2_sb +0 x_4_8_3_sb +0 p0_4_8 -1 p1_4_8 >= -1
+0 x_4_16_0 +1 x_4_16_1 +0 x_4_16_2 +1 x_4_16_3 +0 x_4_8_0_sb -1 x_4_8_1_sb -1 x_4_8_2_sb +0 x_4_8_3_sb +0 p0_4_8 -1 p1_4_8 >= -2
+1 x_4_16_0 -1 x_4_16_1 +0 x_4_16_2 -1 x_4_16_3 +0 x_4_8_0_sb +0 x_4_8_1_sb +1 x_4_8_2_sb +0 x_4_8_3_sb +0 p0_4_8 +0 p1_4_8 >= -1
+1 x_4_16_0 -1 x_4_16_1 -1 x_4_16_2 +0 x_4_16_3 +0 x_4_8_0_sb +0 x_4_8_1_sb +1 x_4_8_2_sb -1 x_4_8_3_sb +0 p0_4_8 -1 p1_4_8 >= -3
+1 x_4_16_0 -1 x_4_16_1 +0 x_4_16_2 -1 x_4_16_3 +0 x_4_8_0_sb +0 x_4_8_1_sb +0 x_4_8_2_sb +0 x_4_8_3_sb +0 p0_4_8 +1 p1_4_8 >= -1
+1 x_4_16_0 +0 x_4_16_1 +0 x_4_16_2 +0 x_4_16_3 -1 x_4_8_0_sb +1 x_4_8_1_sb +0 x_4_8_2_sb -1 x_4_8_3_sb +0 p0_4_8 +1 p1_4_8 >= -1
+1 x_4_16_0 +0 x_4_16_1 +0 x_4_16_2 +0 x_4_16_3 -1 x_4_8_0_sb -1 x_4_8_1_sb +0 x_4_8_2_sb +1 x_4_8_3_sb +0 p0_4_8 +1 p1_4_8 >= -1
-1 x_4_16_0 -1 x_4_16_1 +0 x_4_16_2 +1 x_4_16_3 +1 x_4_8_0_sb +0 x_4_8_1_sb +0 x_4_8_2_sb +0 x_4_8_3_sb +0 p0_4_8 +1 p1_4_8 >= -1
-1 x_4_16_0 +1 x_4_16_1 +0 x_4_16_2 -1 x_4_16_3 +1 x_4_8_0_sb +0 x_4_8_1_sb +0 x_4_8_2_sb +0 x_4_8_3_sb +0 p0_4_8 +1 p1_4_8 >= -1
+0 x_4_16_0 -1 x_4_16_1 +0 x_4_16_2 -1 x_4_16_3 +0 x_4_8_0_sb -1 x_4_8_1_sb +0 x_4_8_2_sb -1 x_4_8_3_sb +0 p0_4_8 +1 p1_4_8 >= -3
+1 x_4_16_0 +1 x_4_16_1 +0 x_4_16_2 +1 x_4_16_3 +0 x_4_8_0_sb +0 x_4_8_1_sb -1 x_4_8_2_sb +0 x_4_8_3_sb +0 p0_4_8 +0 p1_4_8 >= 0
-1 x_4_16_0 +0 x_4_16_1 +1 x_4_16_2 -1 x_4_16_3 +0 x_4_8_0_sb -1 x_4_8_1_sb -1 x_4_8_2_sb +0 x_4_8_3_sb +0 p0_4_8 -1 p1_4_8 >= -4
+1 x_4_16_0 +1 x_4_16_1 +0 x_4_16_2 -1 x_4_16_3 +1 x_4_8_0_sb +1 x_4_8_1_sb +0 x_4_8_2_sb -1 x_4_8_3_sb +0 p0_4_8 -1 p1_4_8 >= -2
+1 x_4_16_0 +0 x_4_16_1 +1 x_4_16_2 +0 x_4_16_3 +0 x_4_8_0_sb +1 x_4_8_1_sb +1 x_4_8_2_sb +1 x_4_8_3_sb +0 p0_4_8 -1 p1_4_8 >= 0
+1 x_4_16_0 +0 x_4_16_1 -1 x_4_16_2 -1 x_4_16_3 -1 x_4_8_0_sb -1 x_4_8_1_sb +0 x_4_8_2_sb -1 x_4_8_3_sb +0 p0_4_8 -1 p1_4_8 >= -5
+0 x_4_16_0 +0 x_4_16_1 +1 x_4_16_2 +1 x_4_16_3 -1 x_4_8_0_sb +0 x_4_8_1_sb -1 x_4_8_2_sb +0 x_4_8_3_sb +0 p0_4_8 -1 p1_4_8 >= -2
+0 x_4_16_0 +0 x_4_16_1 +1 x_4_16_2 +0 x_4_16_3 +1 x_4_8_0_sb -1 x_4_8_1_sb +0 x_4_8_2_sb -1 x_4_8_3_sb +0 p0_4_8 +0 p1_4_8 >= -1
+0 x_4_16_0 -1 x_4_16_1 +0 x_4_16_2 -1 x_4_16_3 +0 x_4_8_0_sb +1 x_4_8_1_sb +0 x_4_8_2_sb +1 x_4_8_3_sb +0 p0_4_8 +1 p1_4_8 >= -1
+0 x_4_16_0 +1 x_4_16_1 +0 x_4_16_2 +1 x_4_16_3 +0 x_4_8_0_sb -1 x_4_8_1_sb +0 x_4_8_2_sb -1 x_4_8_3_sb +0 p0_4_8 +1 p1_4_8 >= -1
+1 x_4_16_0 -1 x_4_16_1 +1 x_4_16_2 -1 x_4_16_3 +1 x_4_8_0_sb +0 x_4_8_1_sb +0 x_4_8_2_sb +0 x_4_8_3_sb +0 p0_4_8 +0 p1_4_8 >= -1
+1 x_4_16_0 +0 x_4_16_1 +0 x_4_16_2 +0 x_4_16_3 +1 x_4_8_0_sb -1 x_4_8_1_sb +1 x_4_8_2_sb -1 x_4_8_3_sb +0 p0_4_8 +0 p1_4_8 >= -1
+0 x_4_16_0 -1 x_4_16_1 +0 x_4_16_2 -1 x_4_16_3 +1 x_4_8_0_sb -1 x_4_8_1_sb -1 x_4_8_2_sb -1 x_4_8_3_sb +0 p0_4_8 +0 p1_4_8 >= -4
+1 x_4_16_0 +0 x_4_16_1 +0 x_4_16_2 +1 x_4_16_3 +0 x_4_8_0_sb -1 x_4_8_1_sb -1 x_4_8_2_sb +1 x_4_8_3_sb +0 p0_4_8 -1 p1_4_8 >= -2
+0 x_4_16_0 +0 x_4_16_1 -1 x_4_16_2 +1 x_4_16_3 -1 x_4_8_0_sb +1 x_4_8_1_sb +0 x_4_8_2_sb -1 x_4_8_3_sb +0 p0_4_8 -1 p1_4_8 >= -3
+0 x_4_16_0 +1 x_4_16_1 +0 x_4_16_2 +1 x_4_16_3 -1 x_4_8_0_sb -1 x_4_8_1_sb +0 x_4_8_2_sb +1 x_4_8_3_sb +0 p0_4_8 -1 p1_4_8 >= -2
-1 x_4_16_0 +1 x_4_16_1 +0 x_4_16_2 -1 x_4_16_3 +0 x_4_8_0_sb +0 x_4_8_1_sb -1 x_4_8_2_sb +1 x_4_8_3_sb +0 p0_4_8 -1 p1_4_8 >= -3
-1 x_4_16_0 +0 x_4_16_1 +0 x_4_16_2 +0 x_4_16_3 -1 x_4_8_0_sb +1 x_4_8_1_sb +0 x_4_8_2_sb -1 x_4_8_3_sb +0 p0_4_8 -1 p1_4_8 >= -3
+0 x_4_16_0 +0 x_4_16_1 -1 x_4_16_2 +0 x_4_16_3 +1 x_4_8_0_sb +1 x_4_8_1_sb +0 x_4_8_2_sb +1 x_4_8_3_sb +0 p0_4_8 +0 p1_4_8 >= 0
+0 x_4_18_0 +0 x_4_18_1 +0 x_4_18_2 +0 x_4_18_3 +0 x_4_9_0_sb +0 x_4_9_1_sb +0 x_4_9_2_sb +0 x_4_9_3_sb -1 p0_4_9 -1 p1_4_9 >= -1
+0 x_4_18_0 +0 x_4_18_1 +0 x_4_18_2 +0 x_4_18_3 +0 x_4_9_0_sb +0 x_4_9_1_sb +0 x_4_9_2_sb -1 x_4_9_3_sb +1 p0_4_9 +1 p1_4_9 >= 0
+0 x_4_18_0 +0 x_4_18_1 +0 x_4_18_2 +0 x_4_18_3 +0 x_4_9_0_sb -1 x_4_9_1_sb +0 x_4_9_2_sb +0 x_4_9_3_sb +1 p0_4_9 +1 p1_4_9 >= 0
+0 x_4_18_0 +0 x_4_18_1 +0 x_4_18_2 +0 x_4_18_3 -1 x_4_9_0_sb +0 x_4_9_1_sb +0 x_4_9_2_sb +0 x_4_9_3_sb +1 p0_4_9 +1 p1_4_9 >= 0
+0 x_4_18_0 +0 x_4_18_1 +0 x_4_18_2 +0 x_4_18_3 +1 x_4_9_0_sb +1 x_4_9_1_sb +1 x_4_9_2_sb +1 x_4_9_3_sb +0 p0_4_9 -1 p1_4_9 >= 0
+0 x_4_18_0 +0 x_4_18_1 +0 x_4_18_2 -1 x_4_18_3 +1 x_4_9_0_sb +1 x_4_9_1_sb +0 x_4_9_2_sb +1 x_4_9_3_sb +0 p0_4_9 +1 p1_4_9 >= 0
-1 x_4_18_0 +0 x_4_18_1 -1 x_4_18_2 +0 x_4_18_3 +1 x_4_9_0_sb +0 x_4_9_1_sb +0 x_4_9_2_sb +1 x_4_9_3_sb +0 p0_4_9 -1 p1_4_9 >= -2
+1 x_4_18_0 +0 x_4_18_1 +1 x_4_18_2 +0 x_4_18_3 +1 x_4_9_0_sb +0 x_4_9_1_sb +1 x_4_9_2_sb +0 x_4_9_3_sb +0 p0_4_9 -1 p1_4_9 >= 0
+0 x_4_18_0 +0 x_4_18_1 +0 x_4_18_2 +1 x_4_18_3 +0 x_4_9_0_sb +1 x_4_9_1_sb -1 x_4_9_2_sb -1 x_4_9_3_sb +0 p0_4_9 -1 p1_4_9 >= -2
-1 x_4_18_0 +0 x_4_18_1 +0 x_4_18_2 -1 x_4_18_3 -1 x_4_9_0_sb +0 x_4_9_1_sb +0 x_4_9_2_sb +1 x_4_9_3_sb +0 p0_4_9 -1 p1_4_9 >= -3
+0 x_4_18_0 +0 x_4_18_1 +0 x_4_18_2 +1 x_4_18_3 -1 x_4_9_0_sb -1 x_4_9_1_sb -1 x_4_9_2_sb +0 x_4_9_3_sb +0 p0_4_9 -1 p1_4_9 >= -3
+1 x_4_18_0 +1 x_4_18_1 +0 x_4_18_2 +1 x_4_18_3 +0 x_4_9_0_sb +0 x_4_9_1_sb +0 x_4_9_2_sb +0 x_4_9_3_sb -1 p0_4_9 +0 p1_4_9 >= 0
+0 x_4_18_0 +0 x_4_18_1 +1 x_4_18_2 +1 x_4_18_3 +0 x_4_9_0_sb -1 x_4_9_1_sb +1 x_4_9_2_sb +0 x_4_9_3_sb +0 p0_4_9 -1 p1_4_9 >= -1
+0 x_4_18_0 +1 x_4_18_1 +0 x_4_18_2 -1 x_4_18_3 -1 x_4_9_0_sb +0 x_4_9_1_sb -1 x_4_9_2_sb +0 x_4_9_3_sb +0 p0_4_9 -1 p1_4_9 >= -3
+0 x_4_18_0 +1 x_4_18_1 +1 x_4_18_2 +0 x_4_18_3 +0 x_4_9_0_sb +0 x_4_9_1_sb +1 x_4_9_2_sb -1 x_4_9_3_sb +0 p0_4_9 -1 p1_4_9 >= -1
-1 x_4_18_0 +0 x_4_18_1 -1 x_4_18_2 +0 x_4_18_3 -1 x_4_9_0_sb +0 x_4_9_1_sb +1 x_4_9_2_sb +0 x_4_9_3_sb +0 p0_4_9 -1 p1_4_9 >= -3
+0 x_4_18_0 -1 x_4_18_1 -1 x_4_18_2 +0 x_4_18_3 +0 x_4_9_0_sb +1 x_4_9_1_sb +0 x_4_9_2_sb +1 x_4_9_3_sb +0 p0_4_9 -1 p1_4_9 >= -2
+0 x_4_18_0 -1 x_4_18_1 +0 x_4_18_2 +0 x_4_18_3 +1 x_4_9_0_sb +1 x_4_9_1_sb +0 x_4_9_2_sb +1 x_4_9_3_sb +0 p0_4_9 +1 p1_4_9 >= 0
-1 x_4_18_0 -1 x_4_18_1 +0 x_4_18_2 +1 x_4_18_3 +0 x_4_9_0_sb +1 x_4_9_1_sb +0 x_4_9_2_sb +1 x_4_9_3_sb +0 p0_4_9 -1 p1_4_9 >= -2
+0 x_4_18_0 -1 x_4_18_1 +0 x_4_18_2 +0 x_4_18_3 +1 x_4_9_0_sb +0 x_4_9_1_sb +1 x_4_9_2_sb +1 x_4_9_3_sb +0 p0_4_9 -1 p1_4_9 >= -1
-1 x_4_18_0 +0 x_4_18_1 -1 x_4_18_2 +0 x_4_18_3 +1 x_4_9_0_sb +1 x_4_9_1_sb +0 x_4_9_2_sb +0 x_4_9_3_sb +0 p0_4_9 -1 p1_4_9 >= -2
+0 x_4_18_0 +1 x_4_18_1 -1 x_4_18_2 -1 x_4_18_3 +0 x_4_9_0_sb +0 x_4_9_1_sb +0 x_4_9_2_sb +1 x_4_9_3_sb +0 p0_4_9 -1 p1_4_9 >= -2
-1 x_4_18_0 -1 x_4_18_1 +0 x_4_18_2 -1 x_4_18_3 +0 x_4_9_0_sb +1 x_4_9_1_sb +0 x_4_9_2_sb -1 x_4_9_3_sb +0 p0_4_9 -1 p1_4_9 >= -4
-1 x_4_18_0 +1 x_4_18_1 +0 x_4_18_2 +1 x_4_18_3 +0 x_4_9_0_sb +1 x_4_9_1_sb +0 x_4_9_2_sb +1 x_4_9_3_sb +0 p0_4_9 +1 p1_4_9 >= 0
+0 x_4_18_0 +0 x_4_18_1 +0 x_4_18_2 +0 x_4_18_3 +1 x_4_9_0_sb -1 x_4_9_1_sb +0 x_4_9_2_sb -1 x_4_9_3_sb +0 p0_4_9 +1 p1_4_9 >= -1
+1 x_4_18_0 +0 x_4_18_1 +1 x_4_18_2 +0 x_4_18_3 +1 x_4_9_0_sb -1 x_4_9_1_sb +0 x_4_9_2_sb +0 x_4_9_3_sb +0 p0_4_9 -1 p1_4_9 >= -1
+0 x_4_18_0 +1 x_4_18_1 +0 x_4_18_2 +1 x_4_18_3 +0 x_4_9_0_sb -1 x_4_9_1_sb -1 x_4_9_2_sb +0 x_4_9_3_sb +0 p0_4_9 -1 p1_4_9 >= -2
+1 x_4_18_0 -1 x_4_18_1 +0 x_4_18_2 -1 x_4_18_3 +0 x_4_9_0_sb +0 x_4_9_1_sb +1 x_4_9_2_sb +0 x_4_9_3_sb +0 p0_4_9 +0 p1_4_9 >= -1
+1 x_4_18_0 -1 x_4_18_1 -1 x_4_18_2 +0 x_4_18_3 +0 x_4_9_0_sb +0 x_4_9_1_sb +1 x_4_9_2_sb -1 x_4_9_3_sb +0 p0_4_9 -1 p1_4_9 >= -3
+1 x_4_18_0 -1 x_4_18_1 +0 x_4_18_2 -1 x_4_18_3 +0 x_4_9_0_sb +0 x_4_9_1_sb +0 x_4_9_2_sb +0 x_4_9_3_sb +0 p0_4_9 +1 p1_4_9 >= -1
+1 x_4_18_0 +0 x_4_18_1 +0 x_4_18_2 +0 x_4_18_3 -1 x_4_9_0_sb +1 x_4_9_1_sb +0 x_4_9_2_sb -1 x_4_9_3_sb +0 p0_4_9 +1 p1_4_9 >= -1
+1 x_4_18_0 +0 x_4_18_1 +0 x_4_18_2 +0 x_4_18_3 -1 x_4_9_0_sb -1 x_4_9_1_sb +0 x_4_9_2_sb +1 x_4_9_3_sb +0 p0_4_9 +1 p1_4_9 >= -1
-1 x_4_18_0 -1 x_4_18_1 +0 x_4_18_2 +1 x_4_18_3 +1 x_4_9_0_sb +0 x_4_9_1_sb +0 x_4_9_2_sb +0 x_4_9_3_sb +0 p0_4_9 +1 p1_4_9 >= -1
-1 x_4_18_0 +1 x_4_18_1 +0 x_4_18_2 -1 x_4_18_3 +1 x_4_9_0_sb +0 x_4_9_1_sb +0 x_4_9_2_sb +0 x_4_9_3_sb +0 p0_4_9 +1 p1_4_9 >= -1
+0 x_4_18_0 -1 x_4_18_1 +0 x_4_18_2 -1 x_4_18_3 +0 x_4_9_0_sb -1 x_4_9_1_sb +0 x_4_9_2_sb -1 x_4_9_3_sb +0 p0_4_9 +1 p1_4_9 >= -3
+1 x_4_18_0 +1 x_4_18_1 +0 x_4_18_2 +1 x_4_18_3 +0 x_4_9_0_sb +0 x_4_9_1_sb -1 x_4_9_2_sb +0 x_4_9_3_sb +0 p0_4_9 +0 p1_4_9 >= 0
-1 x_4_18_0 +0 x_4_18_1 +1 x_4_18_2 -1 x_4_18_3 +0 x_4_9_0_sb -1 x_4_9_1_sb -1 x_4_9_2_sb +0 x_4_9_3_sb +0 p0_4_9 -1 p1_4_9 >= -4
+1 x_4_18_0 +1 x_4_18_1 +0 x_4_18_2 -1 x_4_18_3 +1 x_4_9_0_sb +1 x_4_9_1_sb +0 x_4_9_2_sb -1 x_4_9_3_sb +0 p0_4_9 -1 p1_4_9 >= -2
+1 x_4_18_0 +0 x_4_18_1 +1 x_4_18_2 +0 x_4_18_3 +0 x_4_9_0_sb +1 x_4_9_1_sb +1 x_4_9_2_sb +1 x_4_9_3_sb +0 p0_4_9 -1 p1_4_9 >= 0
+1 x_4_18_0 +0 x_4_18_1 -1 x_4_18_2 -1 x_4_18_3 -1 x_4_9_0_sb -1 x_4_9_1_sb +0 x_4_9_2_sb -1 x_4_9_3_sb +0 p0_4_9 -1 p1_4_9 >= -5
+0 x_4_18_0 +0 x_4_18_1 +1 x_4_18_2 +1 x_4_18_3 -1 x_4_9_0_sb +0 x_4_9_1_sb -1 x_4_9_2_sb +0 x_4_9_3_sb +0 p0_4_9 -1 p1_4_9 >= -2
+0 x_4_18_0 +0 x_4_18_1 +1 x_4_18_2 +0 x_4_18_3 +1 x_4_9_0_sb -1 x_4_9_1_sb +0 x_4_9_2_sb -1 x_4_9_3_sb +0 p0_4_9 +0 p1_4_9 >= -1
+0 x_4_18_0 -1 x_4_18_1 +0 x_4_18_2 -1 x_4_18_3 +0 x_4_9_0_sb +1 x_4_9_1_sb +0 x_4_9_2_sb +1 x_4_9_3_sb +0 p0_4_9 +1 p1_4_9 >= -1
+0 x_4_18_0 +1 x_4_18_1 +0 x_4_18_2 +1 x_4_18_3 +0 x_4_9_0_sb -1 x_4_9_1_sb +0 x_4_9_2_sb -1 x_4_9_3_sb +0 p0_4_9 +1 p1_4_9 >= -1
+1 x_4_18_0 -1 x_4_18_1 +1 x_4_18_2 -1 x_4_18_3 +1 x_4_9_0_sb +0 x_4_9_1_sb +0 x_4_9_2_sb +0 x_4_9_3_sb +0 p0_4_9 +0 p1_4_9 >= -1
+1 x_4_18_0 +0 x_4_18_1 +0 x_4_18_2 +0 x_4_18_3 +1 x_4_9_0_sb -1 x_4_9_1_sb +1 x_4_9_2_sb -1 x_4_9_3_sb +0 p0_4_9 +0 p1_4_9 >= -1
+0 x_4_18_0 -1 x_4_18_1 +0 x_4_18_2 -1 x_4_18_3 +1 x_4_9_0_sb -1 x_4_9_1_sb -1 x_4_9_2_sb -1 x_4_9_3_sb +0 p0_4_9 +0 p1_4_9 >= -4
+1 x_4_18_0 +0 x_4_18_1 +0 x_4_18_2 +1 x_4_18_3 +0 x_4_9_0_sb -1 x_4_9_1_sb -1 x_4_9_2_sb +1 x_4_9_3_sb +0 p0_4_9 -1 p1_4_9 >= -2
+0 x_4_18_0 +0 x_4_18_1 -1 x_4_18_2 +1 x_4_18_3 -1 x_4_9_0_sb +1 x_4_9_1_sb +0 x_4_9_2_sb -1 x_4_9_3_sb +0 p0_4_9 -1 p1_4_9 >= -3
+0 x_4_18_0 +1 x_4_18_1 +0 x_4_18_2 +1 x_4_18_3 -1 x_4_9_0_sb -1 x_4_9_1_sb +0 x_4_9_2_sb +1 x_4_9_3_sb +0 p0_4_9 -1 p1_4_9 >= -2
-1 x_4_18_0 +1 x_4_18_1 +0 x_4_18_2 -1 x_4_18_3 +0 x_4_9_0_sb +0 x_4_9_1_sb -1 x_4_9_2_sb +1 x_4_9_3_sb +0 p0_4_9 -1 p1_4_9 >= -3
-1 x_4_18_0 +0 x_4_18_1 +0 x_4_18_2 +0 x_4_18_3 -1 x_4_9_0_sb +1 x_4_9_1_sb +0 x_4_9_2_sb -1 x_4_9_3_sb +0 p0_4_9 -1 p1_4_9 >= -3
+0 x_4_18_0 +0 x_4_18_1 -1 x_4_18_2 +0 x_4_18_3 +1 x_4_9_0_sb +1 x_4_9_1_sb +0 x_4_9_2_sb +1 x_4_9_3_sb +0 p0_4_9 +0 p1_4_9 >= 0
+0 x_4_20_0 +0 x_4_20_1 +0 x_4_20_2 +0 x_4_20_3 +0 x_4_10_0_sb +0 x_4_10_1_sb +0 x_4_10_2_sb +0 x_4_10_3_sb -1 p0_4_10 -1 p1_4_10 >= -1
+0 x_4_20_0 +0 x_4_20_1 +0 x_4_20_2 +0 x_4_20_3 +0 x_4_10_0_sb +0 x_4_10_1_sb +0 x_4_10_2_sb -1 x_4_10_3_sb +1 p0_4_10 +1 p1_4_10 >= 0
+0 x_4_20_0 +0 x_4_20_1 +0 x_4_20_2 +0 x_4_20_3 +0 x_4_10_0_sb -1 x_4_10_1_sb +0 x_4_10_2_sb +0 x_4_10_3_sb +1 p0_4_10 +1 p1_4_10 >= 0
+0 x_4_20_0 +0 x_4_20_1 +0 x_4_20_2 +0 x_4_20_3 -1 x_4_10_0_sb +0 x_4_10_1_sb +0 x_4_10_2_sb +0 x_4_10_3_sb +1 p0_4_10 +1 p1_4_10 >= 0
+0 x_4_20_0 +0 x_4_20_1 +0 x_4_20_2 +0 x_4_20_3 +1 x_4_10_0_sb +1 x_4_10_1_sb +1 x_4_10_2_sb +1 x_4_10_3_sb +0 p0_4_10 -1 p1_4_10 >= 0
+0 x_4_20_0 +0 x_4_20_1 +0 x_4_20_2 -1 x_4_20_3 +1 x_4_10_0_sb +1 x_4_10_1_sb +0 x_4_10_2_sb +1 x_4_10_3_sb +0 p0_4_10 +1 p1_4_10 >= 0
-1 x_4_20_0 +0 x_4_20_1 -1 x_4_20_2 +0 x_4_20_3 +1 x_4_10_0_sb +0 x_4_10_1_sb +0 x_4_10_2_sb +1 x_4_10_3_sb +0 p0_4_10 -1 p1_4_10 >= -2
+1 x_4_20_0 +0 x_4_20_1 +1 x_4_20_2 +0 x_4_20_3 +1 x_4_10_0_sb +0 x_4_10_1_sb +1 x_4_10_2_sb +0 x_4_10_3_sb +0 p0_4_10 -1 p1_4_10 >= 0
+0 x_4_20_0 +0 x_4_20_1 +0 x_4_20_2 +1 x_4_20_3 +0 x_4_10_0_sb +1 x_4_10_1_sb -1 x_4_10_2_sb -1 x_4_10_3_sb +0 p0_4_10 -1 p1_4_10 >= -2
-1 x_4_20_0 +0 x_4_20_1 +0 x_4_20_2 -1 x_4_20_3 -1 x_4_10_0_sb +0 x_4_10_1_sb +0 x_4_10_2_sb +1 x_4_10_3_sb +0 p0_4_10 -1 p1_4_10 >= -3
+0 x_4_20_0 +0 x_4_20_1 +0 x_4_20_2 +1 x_4_20_3 -1 x_4_10_0_sb -1 x_4_10_1_sb -1 x_4_10_2_sb +0 x_4_10_3_sb +0 p0_4_10 -1 p1_4_10 >= -3
+1 x_4_20_0 +1 x_4_20_1 +0 x_4_20_2 +1 x_4_20_3 +0 x_4_10_0_sb +0 x_4_10_1_sb +0 x_4_10_2_sb +0 x_4_10_3_sb -1 p0_4_10 +0 p1_4_10 >= 0
+0 x_4_20_0 +0 x_4_20_1 +1 x_4_20_2 +1 x_4_20_3 +0 x_4_10_0_sb -1 x_4_10_1_sb +1 x_4_10_2_sb +0 x_4_10_3_sb +0 p0_4_10 -1 p1_4_10 >= -1
+0 x_4_20_0 +1 x_4_20_1 +0 x_4_20_2 -1 x_4_20_3 -1 x_4_10_0_sb +0 x_4_10_1_sb -1 x_4_10_2_sb +0 x_4_10_3_sb +0 p0_4_10 -1 p1_4_10 >= -3
+0 x_4_20_0 +1 x_4_20_1 +1 x_4_20_2 +0 x_4_20_3 +0 x_4_10_0_sb +0 x_4_10_1_sb +1 x_4_10_2_sb -1 x_4_10_3_sb +0 p0_4_10 -1 p1_4_10 >= -1
-1 x_4_20_0 +0 x_4_20_1 -1 x_4_20_2 +0 x_4_20_3 -1 x_4_10_0_sb +0 x_4_10_1_sb +1 x_4_10_2_sb +0 x_4_10_3_sb +0 p0_4_10 -1 p1_4_10 >= -3
+0 x_4_20_0 -1 x_4_20_1 -1 x_4_20_2 +0 x_4_20_3 +0 x_4_10_0_sb +1 x_4_10_1_sb +0 x_4_10_2_sb +1 x_4_10_3_sb +0 p0_4_10 -1 p1_4_10 >= -2
+0 x_4_20_0 -1 x_4_20_1 +0 x_4_20_2 +0 x_4_20_3 +1 x_4_10_0_sb +1 x_4_10_1_sb +0 x_4_10_2_sb +1 x_4_10_3_sb +0 p0_4_10 +1 p1_4_10 >= 0
-1 x_4_20_0 -1 x_4_20_1 +0 x_4_20_2 +1 x_4_20_3 +0 x_4_10_0_sb +1 x_4_10_1_sb +0 x_4_10_2_sb +1 x_4_10_3_sb +0 p0_4_10 -1 p1_4_10 >= -2
+0 x_4_20_0 -1 x_4_20_1 +0 x_4_20_2 +0 x_4_20_3 +1 x_4_10_0_sb +0 x_4_10_1_sb +1 x_4_10_2_sb +1 x_4_10_3_sb +0 p0_4_10 -1 p1_4_10 >= -1
-1 x_4_20_0 +0 x_4_20_1 -1 x_4_20_2 +0 x_4_20_3 +1 x_4_10_0_sb +1 x_4_10_1_sb +0 x_4_10_2_sb +0 x_4_10_3_sb +0 p0_4_10 -1 p1_4_10 >= -2
+0 x_4_20_0 +1 x_4_20_1 -1 x_4_20_2 -1 x_4_20_3 +0 x_4_10_0_sb +0 x_4_10_1_sb +0 x_4_10_2_sb +1 x_4_10_3_sb +0 p0_4_10 -1 p1_4_10 >= -2
-1 x_4_20_0 -1 x_4_20_1 +0 x_4_20_2 -1 x_4_20_3 +0 x_4_10_0_sb +1 x_4_10_1_sb +0 x_4_10_2_sb -1 x_4_10_3_sb +0 p0_4_10 -1 p1_4_10 >= -4
-1 x_4_20_0 +1 x_4_20_1 +0 x_4_20_2 +1 x_4_20_3 +0 x_4_10_0_sb +1 x_4_10_1_sb +0 x_4_10_2_sb +1 x_4_10_3_sb +0 p0_4_10 +1 p1_4_10 >= 0
+0 x_4_20_0 +0 x_4_20_1 +0 x_4_20_2 +0 x_4_20_3 +1 x_4_10_0_sb -1 x_4_10_1_sb +0 x_4_10_2_sb -1 x_4_10_3_sb +0 p0_4_10 +1 p1_4_10 >= -1
+1 x_4_20_0 +0 x_4_20_1 +1 x_4_20_2 +0 x_4_20_3 +1 x_4_10_0_sb -1 x_4_10_1_sb +0 x_4_10_2_sb +0 x_4_10_3_sb +0 p0_4_10 -1 p1_4_10 >= -1
+0 x_4_20_0 +1 x_4_20_1 +0 x_4_20_2 +1 x_4_20_3 +0 x_4_10_0_sb -1 x_4_10_1_sb -1 x_4_10_2_sb +0 x_4_10_3_sb +0 p0_4_10 -1 p1_4_10 >= -2
+1 x_4_20_0 -1 x_4_20_1 +0 x_4_20_2 -1 x_4_20_3 +0 x_4_10_0_sb +0 x_4_10_1_sb +1 x_4_10_2_sb +0 x_4_10_3_sb +0 p0_4_10 +0 p1_4_10 >= -1
+1 x_4_20_0 -1 x_4_20_1 -1 x_4_20_2 +0 x_4_20_3 +0 x_4_10_0_sb +0 x_4_10_1_sb +1 x_4_10_2_sb -1 x_4_10_3_sb +0 p0_4_10 -1 p1_4_10 >= -3
+1 x_4_20_0 -1 x_4_20_1 +0 x_4_20_2 -1 x_4_20_3 +0 x_4_10_0_sb +0 x_4_10_1_sb +0 x_4_10_2_sb +0 x_4_10_3_sb +0 p0_4_10 +1 p1_4_10 >= -1
+1 x_4_20_0 +0 x_4_20_1 +0 x_4_20_2 +0 x_4_20_3 -1 x_4_10_0_sb +1 x_4_10_1_sb +0 x_4_10_2_sb -1 x_4_10_3_sb +0 p0_4_10 +1 p1_4_10 >= -1
+1 x_4_20_0 +0 x_4_20_1 +0 x_4_20_2 +0 x_4_20_3 -1 x_4_10_0_sb -1 x_4_10_1_sb +0 x_4_10_2_sb +1 x_4_10_3_sb +0 p0_4_10 +1 p1_4_10 >= -1
-1 x_4_20_0 -1 x_4_20_1 +0 x_4_20_2 +1 x_4_20_3 +1 x_4_10_0_sb +0 x_4_10_1_sb +0 x_4_10_2_sb +0 x_4_10_3_sb +0 p0_4_10 +1 p1_4_10 >= -1
-1 x_4_20_0 +1 x_4_20_1 +0 x_4_20_2 -1 x_4_20_3 +1 x_4_10_0_sb +0 x_4_10_1_sb +0 x_4_10_2_sb +0 x_4_10_3_sb +0 p0_4_10 +1 p1_4_10 >= -1
+0 x_4_20_0 -1 x_4_20_1 +0 x_4_20_2 -1 x_4_20_3 +0 x_4_10_0_sb -1 x_4_10_1_sb +0 x_4_10_2_sb -1 x_4_10_3_sb +0 p0_4_10 +1 p1_4_10 >= -3
+1 x_4_20_0 +1 x_4_20_1 +0 x_4_20_2 +1 x_4_20_3 +0 x_4_10_0_sb +0 x_4_10_1_sb -1 x_4_10_2_sb +0 x_4_10_3_sb +0 p0_4_10 +0 p1_4_10 >= 0
-1 x_4_20_0 +0 x_4_20_1 +1 x_4_20_2 -1 x_4_20_3 +0 x_4_10_0_sb -1 x_4_10_1_sb -1 x_4_10_2_sb +0 x_4_10_3_sb +0 p0_4_10 -1 p1_4_10 >= -4
+1 x_4_20_0 +1 x_4_20_1 +0 x_4_20_2 -1 x_4_20_3 +1 x_4_10_0_sb +1 x_4_10_1_sb +0 x_4_10_2_sb -1 x_4_10_3_sb +0 p0_4_10 -1 p1_4_10 >= -2
+1 x_4_20_0 +0 x_4_20_1 +1 x_4_20_2 +0 x_4_20_3 +0 x_4_10_0_sb +1 x_4_10_1_sb +1 x_4_10_2_sb +1 x_4_10_3_sb +0 p0_4_10 -1 p1_4_10 >= 0
+1 x_4_20_0 +0 x_4_20_1 -1 x_4_20_2 -1 x_4_20_3 -1 x_4_10_0_sb -1 x_4_10_1_sb +0 x_4_10_2_sb -1 x_4_10_3_sb +0 p0_4_10 -1 p1_4_10 >= -5
+0 x_4_20_0 +0 x_4_20_1 +1 x_4_20_2 +1 x_4_20_3 -1 x_4_10_0_sb +0 x_4_10_1_sb -1 x_4_10_2_sb +0 x_4_10_3_sb +0 p0_4_10 -1 p1_4_10 >= -2
+0 x_4_20_0 +0 x_4_20_1 +1 x_4_20_2 +0 x_4_20_3 +1 x_4_10_0_sb -1 x_4_10_1_sb +0 x_4_10_2_sb -1 x_4_10_3_sb +0 p0_4_10 +0 p1_4_10 >= -1
+0 x_4_20_0 -1 x_4_20_1 +0 x_4_20_2 -1 x_4_20_3 +0 x_4_10_0_sb +1 x_4_10_1_sb +0 x_4_10_2_sb +1 x_4_10_3_sb +0 p0_4_10 +1 p1_4_10 >= -1
+0 x_4_20_0 +1 x_4_20_1 +0 x_4_20_2 +1 x_4_20_3 +0 x_4_10_0_sb -1 x_4_10_1_sb +0 x_4_10_2_sb -1 x_4_10_3_sb +0 p0_4_10 +1 p1_4_10 >= -1
+1 x_4_20_0 -1 x_4_20_1 +1 x_4_20_2 -1 x_4_20_3 +1 x_4_10_0_sb +0 x_4_10_1_sb +0 x_4_10_2_sb +0 x_4_10_3_sb +0 p0_4_10 +0 p1_4_10 >= -1
+1 x_4_20_0 +0 x_4_20_1 +0 x_4_20_2 +0 x_4_20_3 +1 x_4_10_0_sb -1 x_4_10_1_sb +1 x_4_10_2_sb -1 x_4_10_3_sb +0 p0_4_10 +0 p1_4_10 >= -1
+0 x_4_20_0 -1 x_4_20_1 +0 x_4_20_2 -1 x_4_20_3 +1 x_4_10_0_sb -1 x_4_10_1_sb -1 x_4_10_2_sb -1 x_4_10_3_sb +0 p0_4_10 +0 p1_4_10 >= -4
+1 x_4_20_0 +0 x_4_20_1 +0 x_4_20_2 +1 x_4_20_3 +0 x_4_10_0_sb -1 x_4_10_1_sb -1 x_4_10_2_sb +1 x_4_10_3_sb +0 p0_4_10 -1 p1_4_10 >= -2
+0 x_4_20_0 +0 x_4_20_1 -1 x_4_20_2 +1 x_4_20_3 -1 x_4_10_0_sb +1 x_4_10_1_sb +0 x_4_10_2_sb -1 x_4_10_3_sb +0 p0_4_10 -1 p1_4_10 >= -3
+0 x_4_20_0 +1 x_4_20_1 +0 x_4_20_2 +1 x_4_20_3 -1 x_4_10_0_sb -1 x_4_10_1_sb +0 x_4_10_2_sb +1 x_4_10_3_sb +0 p0_4_10 -1 p1_4_10 >= -2
-1 x_4_20_0 +1 x_4_20_1 +0 x_4_20_2 -1 x_4_20_3 +0 x_4_10_0_sb +0 x_4_10_1_sb -1 x_4_10_2_sb +1 x_4_10_3_sb +0 p0_4_10 -1 p1_4_10 >= -3
-1 x_4_20_0 +0 x_4_20_1 +0 x_4_20_2 +0 x_4_20_3 -1 x_4_10_0_sb +1 x_4_10_1_sb +0 x_4_10_2_sb -1 x_4_10_3_sb +0 p0_4_10 -1 p1_4_10 >= -3
+0 x_4_20_0 +0 x_4_20_1 -1 x_4_20_2 +0 x_4_20_3 +1 x_4_10_0_sb +1 x_4_10_1_sb +0 x_4_10_2_sb +1 x_4_10_3_sb +0 p0_4_10 +0 p1_4_10 >= 0
+0 x_4_22_0 +0 x_4_22_1 +0 x_4_22_2 +0 x_4_22_3 +0 x_4_11_0_sb +0 x_4_11_1_sb +0 x_4_11_2_sb +0 x_4_11_3_sb -1 p0_4_11 -1 p1_4_11 >= -1
+0 x_4_22_0 +0 x_4_22_1 +0 x_4_22_2 +0 x_4_22_3 +0 x_4_11_0_sb +0 x_4_11_1_sb +0 x_4_11_2_sb -1 x_4_11_3_sb +1 p0_4_11 +1 p1_4_11 >= 0
+0 x_4_22_0 +0 x_4_22_1 +0 x_4_22_2 +0 x_4_22_3 +0 x_4_11_0_sb -1 x_4_11_1_sb +0 x_4_11_2_sb +0 x_4_11_3_sb +1 p0_4_11 +1 p1_4_11 >= 0
+0 x_4_22_0 +0 x_4_22_1 +0 x_4_22_2 +0 x_4_22_3 -1 x_4_11_0_sb +0 x_4_11_1_sb +0 x_4_11_2_sb +0 x_4_11_3_sb +1 p0_4_11 +1 p1_4_11 >= 0
+0 x_4_22_0 +0 x_4_22_1 +0 x_4_22_2 +0 x_4_22_3 +1 x_4_11_0_sb +1 x_4_11_1_sb +1 x_4_11_2_sb +1 x_4_11_3_sb +0 p0_4_11 -1 p1_4_11 >= 0
+0 x_4_22_0 +0 x_4_22_1 +0 x_4_22_2 -1 x_4_22_3 +1 x_4_11_0_sb +1 x_4_11_1_sb +0 x_4_11_2_sb +1 x_4_11_3_sb +0 p0_4_11 +1 p1_4_11 >= 0
-1 x_4_22_0 +0 x_4_22_1 -1 x_4_22_2 +0 x_4_22_3 +1 x_4_11_0_sb +0 x_4_11_1_sb +0 x_4_11_2_sb +1 x_4_11_3_sb +0 p0_4_11 -1 p1_4_11 >= -2
+1 x_4_22_0 +0 x_4_22_1 +1 x_4_22_2 +0 x_4_22_3 +1 x_4_11_0_sb +0 x_4_11_1_sb +1 x_4_11_2_sb +0 x_4_11_3_sb +0 p0_4_11 -1 p1_4_11 >= 0
+0 x_4_22_0 +0 x_4_22_1 +0 x_4_22_2 +1 x_4_22_3 +0 x_4_11_0_sb +1 x_4_11_1_sb -1 x_4_11_2_sb -1 x_4_11_3_sb +0 p0_4_11 -1 p1_4_11 >= -2
-1 x_4_22_0 +0 x_4_22_1 +0 x_4_22_2 -1 x_4_22_3 -1 x_4_11_0_sb +0 x_4_11_1_sb +0 x_4_11_2_sb +1 x_4_11_3_sb +0 p0_4_11 -1 p1_4_11 >= -3
+0 x_4_22_0 +0 x_4_22_1 +0 x_4_22_2 +1 x_4_22_3 -1 x_4_11_0_sb -1 x_4_11_1_sb -1 x_4_11_2_sb +0 x_4_11_3_sb +0 p0_4_11 -1 p1_4_11 >= -3
+1 x_4_22_0 +1 x_4_22_1 +0 x_4_22_2 +1 x_4_22_3 +0 x_4_11_0_sb +0 x_4_11_1_sb +0 x_4_11_2_sb +0 x_4_11_3_sb -1 p0_4_11 +0 p1_4_11 >= 0
+0 x_4_22_0 +0 x_4_22_1 +1 x_4_22_2 +1 x_4_22_3 +0 x_4_11_0_sb -1 x_4_11_1_sb +1 x_4_11_2_sb +0 x_4_11_3_sb +0 p0_4_11 -1 p1_4_11 >= -1
+0 x_4_22_0 +1 x_4_22_1 +0 x_4_22_2 -1 x_4_22_3 -1 x_4_11_0_sb +0 x_4_11_1_sb -1 x_4_11_2_sb +0 x_4_11_3_sb +0 p0_4_11 -1 p1_4_11 >= -3
+0 x_4_22_0 +1 x_4_22_1 +1 x_4_22_2 +0 x_4_22_3 +0 x_4_11_0_sb +0 x_4_11_1_sb +1 x_4_11_2_sb -1 x_4_11_3_sb +0 p0_4_11 -1 p1_4_11 >= -1
-1 x_4_22_0 +0 x_4_22_1 -1 x_4_22_2 +0 x_4_22_3 -1 x_4_11_0_sb +0 x_4_11_1_sb +1 x_4_11_2_sb +0 x_4_11_3_sb +0 p0_4_11 -1 p1_4_11 >= -3
+0 x_4_22_0 -1 x_4_22_1 -1 x_4_22_2 +0 x_4_22_3 +0 x_4_11_0_sb +1 x_4_11_1_sb +0 x_4_11_2_sb +1 x_4_11_3_sb +0 p0_4_11 -1 p1_4_11 >= -2
+0 x_4_22_0 -1 x_4_22_1 +0 x_4_22_2 +0 x_4_22_3 +1 x_4_11_0_sb +1 x_4_11_1_sb +0 x_4_11_2_sb +1 x_4_11_3_sb +0 p0_4_11 +1 p1_4_11 >= 0
-1 x_4_22_0 -1 x_4_22_1 +0 x_4_22_2 +1 x_4_22_3 +0 x_4_11_0_sb +1 x_4_11_1_sb +0 x_4_11_2_sb +1 x_4_11_3_sb +0 p0_4_11 -1 p1_4_11 >= -2
+0 x_4_22_0 -1 x_4_22_1 +0 x_4_22_2 +0 x_4_22_3 +1 x_4_11_0_sb +0 x_4_11_1_sb +1 x_4_11_2_sb +1 x_4_11_3_sb +0 p0_4_11 -1 p1_4_11 >= -1
-1 x_4_22_0 +0 x_4_22_1 -1 x_4_22_2 +0 x_4_22_3 +1 x_4_11_0_sb +1 x_4_11_1_sb +0 x_4_11_2_sb +0 x_4_11_3_sb +0 p0_4_11 -1 p1_4_11 >= -2
+0 x_4_22_0 +1 x_4_22_1 -1 x_4_22_2 -1 x_4_22_3 +0 x_4_11_0_sb +0 x_4_11_1_sb +0 x_4_11_2_sb +1 x_4_11_3_sb +0 p0_4_11 -1 p1_4_11 >= -2
-1 x_4_22_0 -1 x_4_22_1 +0 x_4_22_2 -1 x_4_22_3 +0 x_4_11_0_sb +1 x_4_11_1_sb +0 x_4_11_2_sb -1 x_4_11_3_sb +0 p0_4_11 -1 p1_4_11 >= -4
-1 x_4_22_0 +1 x_4_22_1 +0 x_4_22_2 +1 x_4_22_3 +0 x_4_11_0_sb +1 x_4_11_1_sb +0 x_4_11_2_sb +1 x_4_11_3_sb +0 p0_4_11 +1 p1_4_11 >= 0
+0 x_4_22_0 +0 x_4_22_1 +0 x_4_22_2 +0 x_4_22_3 +1 x_4_11_0_sb -1 x_4_11_1_sb +0 x_4_11_2_sb -1 x_4_11_3_sb +0 p0_4_11 +1 p1_4_11 >= -1
+1 x_4_22_0 +0 x_4_22_1 +1 x_4_22_2 +0 x_4_22_3 +1 x_4_11_0_sb -1 x_4_11_1_sb +0 x_4_11_2_sb +0 x_4_11_3_sb +0 p0_4_11 -1 p1_4_11 >= -1
+0 x_4_22_0 +1 x_4_22_1 +0 x_4_22_2 +1 x_4_22_3 +0 x_4_11_0_sb -1 x_4_11_1_sb -1 x_4_11_2_sb +0 x_4_11_3_sb +0 p0_4_11 -1 p1_4_11 >= -2
+1 x_4_22_0 -1 x_4_22_1 +0 x_4_22_2 -1 x_4_22_3 +0 x_4_11_0_sb +0 x_4_11_1_sb +1 x_4_11_2_sb +0 x_4_11_3_sb +0 p0_4_11 +0 p1_4_11 >= -1
+1 x_4_22_0 -1 x_4_22_1 -1 x_4_22_2 +0 x_4_22_3 +0 x_4_11_0_sb +0 x_4_11_1_sb +1 x_4_11_2_sb -1 x_4_11_3_sb +0 p0_4_11 -1 p1_4_11 >= -3
+1 x_4_22_0 -1 x_4_22_1 +0 x_4_22_2 -1 x_4_22_3 +0 x_4_11_0_sb +0 x_4_11_1_sb +0 x_4_11_2_sb +0 x_4_11_3_sb +0 p0_4_11 +1 p1_4_11 >= -1
+1 x_4_22_0 +0 x_4_22_1 +0 x_4_22_2 +0 x_4_22_3 -1 x_4_11_0_sb +1 x_4_11_1_sb +0 x_4_11_2_sb -1 x_4_11_3_sb +0 p0_4_11 +1 p1_4_11 >= -1
+1 x_4_22_0 +0 x_4_22_1 +0 x_4_22_2 +0 x_4_22_3 -1 x_4_11_0_sb -1 x_4_11_1_sb +0 x_4_11_2_sb +1 x_4_11_3_sb +0 p0_4_11 +1 p1_4_11 >= -1
-1 x_4_22_0 -1 x_4_22_1 +0 x_4_22_2 +1 x_4_22_3 +1 x_4_11_0_sb +0 x_4_11_1_sb +0 x_4_11_2_sb +0 x_4_11_3_sb +0 p0_4_11 +1 p1_4_11 >= -1
-1 x_4_22_0 +1 x_4_22_1 +0 x_4_22_2 -1 x_4_22_3 +1 x_4_11_0_sb +0 x_4_11_1_sb +0 x_4_11_2_sb +0 x_4_11_3_sb +0 p0_4_11 +1 p1_4_11 >= -1
+0 x_4_22_0 -1 x_4_22_1 +0 x_4_22_2 -1 x_4_22_3 +0 x_4_11_0_sb -1 x_4_11_1_sb +0 x_4_11_2_sb -1 x_4_11_3_sb +0 p0_4_11 +1 p1_4_11 >= -3
+1 x_4_22_0 +1 x_4_22_1 +0 x_4_22_2 +1 x_4_22_3 +0 x_4_11_0_sb +0 x_4_11_1_sb -1 x_4_11_2_sb +0 x_4_11_3_sb +0 p0_4_11 +0 p1_4_11 >= 0
-1 x_4_22_0 +0 x_4_22_1 +1 x_4_22_2 -1 x_4_22_3 +0 x_4_11_0_sb -1 x_4_11_1_sb -1 x_4_11_2_sb +0 x_4_11_3_sb +0 p0_4_11 -1 p1_4_11 >= -4
+1 x_4_22_0 +1 x_4_22_1 +0 x_4_22_2 -1 x_4_22_3 +1 x_4_11_0_sb +1 x_4_11_1_sb +0 x_4_11_2_sb -1 x_4_11_3_sb +0 p0_4_11 -1 p1_4_11 >= -2
+1 x_4_22_0 +0 x_4_22_1 +1 x_4_22_2 +0 x_4_22_3 +0 x_4_11_0_sb +1 x_4_11_1_sb +1 x_4_11_2_sb +1 x_4_11_3_sb +0 p0_4_11 -1 p1_4_11 >= 0
+1 x_4_22_0 +0 x_4_22_1 -1 x_4_22_2 -1 x_4_22_3 -1 x_4_11_0_sb -1 x_4_11_1_sb +0 x_4_11_2_sb -1 x_4_11_3_sb +0 p0_4_11 -1 p1_4_11 >= -5
+0 x_4_22_0 +0 x_4_22_1 +1 x_4_22_2 +1 x_4_22_3 -1 x_4_11_0_sb +0 x_4_11_1_sb -1 x_4_11_2_sb +0 x_4_11_3_sb +0 p0_4_11 -1 p1_4_11 >= -2
+0 x_4_22_0 +0 x_4_22_1 +1 x_4_22_2 +0 x_4_22_3 +1 x_4_11_0_sb -1 x_4_11_1_sb +0 x_4_11_2_sb -1 x_4_11_3_sb +0 p0_4_11 +0 p1_4_11 >= -1
+0 x_4_22_0 -1 x_4_22_1 +0 x_4_22_2 -1 x_4_22_3 +0 x_4_11_0_sb +1 x_4_11_1_sb +0 x_4_11_2_sb +1 x_4_11_3_sb +0 p0_4_11 +1 p1_4_11 >= -1
+0 x_4_22_0 +1 x_4_22_1 +0 x_4_22_2 +1 x_4_22_3 +0 x_4_11_0_sb -1 x_4_11_1_sb +0 x_4_11_2_sb -1 x_4_11_3_sb +0 p0_4_11 +1 p1_4_11 >= -1
+1 x_4_22_0 -1 x_4_22_1 +1 x_4_22_2 -1 x_4_22_3 +1 x_4_11_0_sb +0 x_4_11_1_sb +0 x_4_11_2_sb +0 x_4_11_3_sb +0 p0_4_11 +0 p1_4_11 >= -1
+1 x_4_22_0 +0 x_4_22_1 +0 x_4_22_2 +0 x_4_22_3 +1 x_4_11_0_sb -1 x_4_11_1_sb +1 x_4_11_2_sb -1 x_4_11_3_sb +0 p0_4_11 +0 p1_4_11 >= -1
+0 x_4_22_0 -1 x_4_22_1 +0 x_4_22_2 -1 x_4_22_3 +1 x_4_11_0_sb -1 x_4_11_1_sb -1 x_4_11_2_sb -1 x_4_11_3_sb +0 p0_4_11 +0 p1_4_11 >= -4
+1 x_4_22_0 +0 x_4_22_1 +0 x_4_22_2 +1 x_4_22_3 +0 x_4_11_0_sb -1 x_4_11_1_sb -1 x_4_11_2_sb +1 x_4_11_3_sb +0 p0_4_11 -1 p1_4_11 >= -2
+0 x_4_22_0 +0 x_4_22_1 -1 x_4_22_2 +1 x_4_22_3 -1 x_4_11_0_sb +1 x_4_11_1_sb +0 x_4_11_2_sb -1 x_4_11_3_sb +0 p0_4_11 -1 p1_4_11 >= -3
+0 x_4_22_0 +1 x_4_22_1 +0 x_4_22_2 +1 x_4_22_3 -1 x_4_11_0_sb -1 x_4_11_1_sb +0 x_4_11_2_sb +1 x_4_11_3_sb +0 p0_4_11 -1 p1_4_11 >= -2
-1 x_4_22_0 +1 x_4_22_1 +0 x_4_22_2 -1 x_4_22_3 +0 x_4_11_0_sb +0 x_4_11_1_sb -1 x_4_11_2_sb +1 x_4_11_3_sb +0 p0_4_11 -1 p1_4_11 >= -3
-1 x_4_22_0 +0 x_4_22_1 +0 x_4_22_2 +0 x_4_22_3 -1 x_4_11_0_sb +1 x_4_11_1_sb +0 x_4_11_2_sb -1 x_4_11_3_sb +0 p0_4_11 -1 p1_4_11 >= -3
+0 x_4_22_0 +0 x_4_22_1 -1 x_4_22_2 +0 x_4_22_3 +1 x_4_11_0_sb +1 x_4_11_1_sb +0 x_4_11_2_sb +1 x_4_11_3_sb +0 p0_4_11 +0 p1_4_11 >= 0
+0 x_4_24_0 +0 x_4_24_1 +0 x_4_24_2 +0 x_4_24_3 +0 x_4_12_0_sb +0 x_4_12_1_sb +0 x_4_12_2_sb +0 x_4_12_3_sb -1 p0_4_12 -1 p1_4_12 >= -1
+0 x_4_24_0 +0 x_4_24_1 +0 x_4_24_2 +0 x_4_24_3 +0 x_4_12_0_sb +0 x_4_12_1_sb +0 x_4_12_2_sb -1 x_4_12_3_sb +1 p0_4_12 +1 p1_4_12 >= 0
+0 x_4_24_0 +0 x_4_24_1 +0 x_4_24_2 +0 x_4_24_3 +0 x_4_12_0_sb -1 x_4_12_1_sb +0 x_4_12_2_sb +0 x_4_12_3_sb +1 p0_4_12 +1 p1_4_12 >= 0
+0 x_4_24_0 +0 x_4_24_1 +0 x_4_24_2 +0 x_4_24_3 -1 x_4_12_0_sb +0 x_4_12_1_sb +0 x_4_12_2_sb +0 x_4_12_3_sb +1 p0_4_12 +1 p1_4_12 >= 0
+0 x_4_24_0 +0 x_4_24_1 +0 x_4_24_2 +0 x_4_24_3 +1 x_4_12_0_sb +1 x_4_12_1_sb +1 x_4_12_2_sb +1 x_4_12_3_sb +0 p0_4_12 -1 p1_4_12 >= 0
+0 x_4_24_0 +0 x_4_24_1 +0 x_4_24_2 -1 x_4_24_3 +1 x_4_12_0_sb +1 x_4_12_1_sb +0 x_4_12_2_sb +1 x_4_12_3_sb +0 p0_4_12 +1 p1_4_12 >= 0
-1 x_4_24_0 +0 x_4_24_1 -1 x_4_24_2 +0 x_4_24_3 +1 x_4_12_0_sb +0 x_4_12_1_sb +0 x_4_12_2_sb +1 x_4_12_3_sb +0 p0_4_12 -1 p1_4_12 >= -2
+1 x_4_24_0 +0 x_4_24_1 +1 x_4_24_2 +0 x_4_24_3 +1 x_4_12_0_sb +0 x_4_12_1_sb +1 x_4_12_2_sb +0 x_4_12_3_sb +0 p0_4_12 -1 p1_4_12 >= 0
+0 x_4_24_0 +0 x_4_24_1 +0 x_4_24_2 +1 x_4_24_3 +0 x_4_12_0_sb +1 x_4_12_1_sb -1 x_4_12_2_sb -1 x_4_12_3_sb +0 p0_4_12 -1 p1_4_12 >= -2
-1 x_4_24_0 +0 x_4_24_1 +0 x_4_24_2 -1 x_4_24_3 -1 x_4_12_0_sb +0 x_4_12_1_sb +0 x_4_12_2_sb +1 x_4_12_3_sb +0 p0_4_12 -1 p1_4_12 >= -3
+0 x_4_24_0 +0 x_4_24_1 +0 x_4_24_2 +1 x_4_24_3 -1 x_4_12_0_sb -1 x_4_12_1_sb -1 x_4_12_2_sb +0 x_4_12_3_sb +0 p0_4_12 -1 p1_4_12 >= -3
+1 x_4_24_0 +1 x_4_24_1 +0 x_4_24_2 +1 x_4_24_3 +0 x_4_12_0_sb +0 x_4_12_1_sb +0 x_4_12_2_sb +0 x_4_12_3_sb -1 p0_4_12 +0 p1_4_12 >= 0
+0 x_4_24_0 +0 x_4_24_1 +1 x_4_24_2 +1 x_4_24_3 +0 x_4_12_0_sb -1 x_4_12_1_sb +1 x_4_12_2_sb +0 x_4_12_3_sb +0 p0_4_12 -1 p1_4_12 >= -1
+0 x_4_24_0 +1 x_4_24_1 +0 x_4_24_2 -1 x_4_24_3 -1 x_4_12_0_sb +0 x_4_12_1_sb -1 x_4_12_2_sb +0 x_4_12_3_sb +0 p0_4_12 -1 p1_4_12 >= -3
+0 x_4_24_0 +1 x_4_24_1 +1 x_4_24_2 +0 x_4_24_3 +0 x_4_12_0_sb +0 x_4_12_1_sb +1 x_4_12_2_sb -1 x_4_12_3_sb +0 p0_4_12 -1 p1_4_12 >= -1
-1 x_4_24_0 +0 x_4_24_1 -1 x_4_24_2 +0 x_4_24_3 -1 x_4_12_0_sb +0 x_4_12_1_sb +1 x_4_12_2_sb +0 x_4_12_3_sb +0 p0_4_12 -1 p1_4_12 >= -3
+0 x_4_24_0 -1 x_4_24_1 -1 x_4_24_2 +0 x_4_24_3 +0 x_4_12_0_sb +1 x_4_12_1_sb +0 x_4_12_2_sb +1 x_4_12_3_sb +0 p0_4_12 -1 p1_4_12 >= -2
+0 x_4_24_0 -1 x_4_24_1 +0 x_4_24_2 +0 x_4_24_3 +1 x_4_12_0_sb +1 x_4_12_1_sb +0 x_4_12_2_sb +1 x_4_12_3_sb +0 p0_4_12 +1 p1_4_12 >= 0
-1 x_4_24_0 -1 x_4_24_1 +0 x_4_24_2 +1 x_4_24_3 +0 x_4_12_0_sb +1 x_4_12_1_sb +0 x_4_12_2_sb +1 x_4_12_3_sb +0 p0_4_12 -1 p1_4_12 >= -2
+0 x_4_24_0 -1 x_4_24_1 +0 x_4_24_2 +0 x_4_24_3 +1 x_4_12_0_sb +0 x_4_12_1_sb +1 x_4_12_2_sb +1 x_4_12_3_sb +0 p0_4_12 -1 p1_4_12 >= -1
-1 x_4_24_0 +0 x_4_24_1 -1 x_4_24_2 +0 x_4_24_3 +1 x_4_12_0_sb +1 x_4_12_1_sb +0 x_4_12_2_sb +0 x_4_12_3_sb +0 p0_4_12 -1 p1_4_12 >= -2
+0 x_4_24_0 +1 x_4_24_1 -1 x_4_24_2 -1 x_4_24_3 +0 x_4_12_0_sb +0 x_4_12_1_sb +0 x_4_12_2_sb +1 x_4_12_3_sb +0 p0_4_12 -1 p1_4_12 >= -2
-1 x_4_24_0 -1 x_4_24_1 +0 x_4_24_2 -1 x_4_24_3 +0 x_4_12_0_sb +1 x_4_12_1_sb +0 x_4_12_2_sb -1 x_4_12_3_sb +0 p0_4_12 -1 p1_4_12 >= -4
-1 x_4_24_0 +1 x_4_24_1 +0 x_4_24_2 +1 x_4_24_3 +0 x_4_12_0_sb +1 x_4_12_1_sb +0 x_4_12_2_sb +1 x_4_12_3_sb +0 p0_4_12 +1 p1_4_12 >= 0
+0 x_4_24_0 +0 x_4_24_1 +0 x_4_24_2 +0 x_4_24_3 +1 x_4_12_0_sb -1 x_4_12_1_sb +0 x_4_12_2_sb -1 x_4_12_3_sb +0 p0_4_12 +1 p1_4_12 >= -1
+1 x_4_24_0 +0 x_4_24_1 +1 x_4_24_2 +0 x_4_24_3 +1 x_4_12_0_sb -1 x_4_12_1_sb +0 x_4_12_2_sb +0 x_4_12_3_sb +0 p0_4_12 -1 p1_4_12 >= -1
+0 x_4_24_0 +1 x_4_24_1 +0 x_4_24_2 +1 x_4_24_3 +0 x_4_12_0_sb -1 x_4_12_1_sb -1 x_4_12_2_sb +0 x_4_12_3_sb +0 p0_4_12 -1 p1_4_12 >= -2
+1 x_4_24_0 -1 x_4_24_1 +0 x_4_24_2 -1 x_4_24_3 +0 x_4_12_0_sb +0 x_4_12_1_sb +1 x_4_12_2_sb +0 x_4_12_3_sb +0 p0_4_12 +0 p1_4_12 >= -1
+1 x_4_24_0 -1 x_4_24_1 -1 x_4_24_2 +0 x_4_24_3 +0 x_4_12_0_sb +0 x_4_12_1_sb +1 x_4_12_2_sb -1 x_4_12_3_sb +0 p0_4_12 -1 p1_4_12 >= -3
+1 x_4_24_0 -1 x_4_24_1 +0 x_4_24_2 -1 x_4_24_3 +0 x_4_12_0_sb +0 x_4_12_1_sb +0 x_4_12_2_sb +0 x_4_12_3_sb +0 p0_4_12 +1 p1_4_12 >= -1
+1 x_4_24_0 +0 x_4_24_1 +0 x_4_24_2 +0 x_4_24_3 -1 x_4_12_0_sb +1 x_4_12_1_sb +0 x_4_12_2_sb -1 x_4_12_3_sb +0 p0_4_12 +1 p1_4_12 >= -1
+1 x_4_24_0 +0 x_4_24_1 +0 x_4_24_2 +0 x_4_24_3 -1 x_4_12_0_sb -1 x_4_12_1_sb +0 x_4_12_2_sb +1 x_4_12_3_sb +0 p0_4_12 +1 p1_4_12 >= -1
-1 x_4_24_0 -1 x_4_24_1 +0 x_4_24_2 +1 x_4_24_3 +1 x_4_12_0_sb +0 x_4_12_1_sb +0 x_4_12_2_sb +0 x_4_12_3_sb +0 p0_4_12 +1 p1_4_12 >= -1
-1 x_4_24_0 +1 x_4_24_1 +0 x_4_24_2 -1 x_4_24_3 +1 x_4_12_0_sb +0 x_4_12_1_sb +0 x_4_12_2_sb +0 x_4_12_3_sb +0 p0_4_12 +1 p1_4_12 >= -1
+0 x_4_24_0 -1 x_4_24_1 +0 x_4_24_2 -1 x_4_24_3 +0 x_4_12_0_sb -1 x_4_12_1_sb +0 x_4_12_2_sb -1 x_4_12_3_sb +0 p0_4_12 +1 p1_4_12 >= -3
+1 x_4_24_0 +1 x_4_24_1 +0 x_4_24_2 +1 x_4_24_3 +0 x_4_12_0_sb +0 x_4_12_1_sb -1 x_4_12_2_sb +0 x_4_12_3_sb +0 p0_4_12 +0 p1_4_12 >= 0
-1 x_4_24_0 +0 x_4_24_1 +1 x_4_24_2 -1 x_4_24_3 +0 x_4_12_0_sb -1 x_4_12_1_sb -1 x_4_12_2_sb +0 x_4_12_3_sb +0 p0_4_12 -1 p1_4_12 >= -4
+1 x_4_24_0 +1 x_4_24_1 +0 x_4_24_2 -1 x_4_24_3 +1 x_4_12_0_sb +1 x_4_12_1_sb +0 x_4_12_2_sb -1 x_4_12_3_sb +0 p0_4_12 -1 p1_4_12 >= -2
+1 x_4_24_0 +0 x_4_24_1 +1 x_4_24_2 +0 x_4_24_3 +0 x_4_12_0_sb +1 x_4_12_1_sb +1 x_4_12_2_sb +1 x_4_12_3_sb +0 p0_4_12 -1 p1_4_12 >= 0
+1 x_4_24_0 +0 x_4_24_1 -1 x_4_24_2 -1 x_4_24_3 -1 x_4_12_0_sb -1 x_4_12_1_sb +0 x_4_12_2_sb -1 x_4_12_3_sb +0 p0_4_12 -1 p1_4_12 >= -5
+0 x_4_24_0 +0 x_4_24_1 +1 x_4_24_2 +1 x_4_24_3 -1 x_4_12_0_sb +0 x_4_12_1_sb -1 x_4_12_2_sb +0 x_4_12_3_sb +0 p0_4_12 -1 p1_4_12 >= -2
+0 x_4_24_0 +0 x_4_24_1 +1 x_4_24_2 +0 x_4_24_3 +1 x_4_12_0_sb -1 x_4_12_1_sb +0 x_4_12_2_sb -1 x_4_12_3_sb +0 p0_4_12 +0 p1_4_12 >= -1
+0 x_4_24_0 -1 x_4_24_1 +0 x_4_24_2 -1 x_4_24_3 +0 x_4_12_0_sb +1 x_4_12_1_sb +0 x_4_12_2_sb +1 x_4_12_3_sb +0 p0_4_12 +1 p1_4_12 >= -1
+0 x_4_24_0 +1 x_4_24_1 +0 x_4_24_2 +1 x_4_24_3 +0 x_4_12_0_sb -1 x_4_12_1_sb +0 x_4_12_2_sb -1 x_4_12_3_sb +0 p0_4_12 +1 p1_4_12 >= -1
+1 x_4_24_0 -1 x_4_24_1 +1 x_4_24_2 -1 x_4_24_3 +1 x_4_12_0_sb +0 x_4_12_1_sb +0 x_4_12_2_sb +0 x_4_12_3_sb +0 p0_4_12 +0 p1_4_12 >= -1
+1 x_4_24_0 +0 x_4_24_1 +0 x_4_24_2 +0 x_4_24_3 +1 x_4_12_0_sb -1 x_4_12_1_sb +1 x_4_12_2_sb -1 x_4_12_3_sb +0 p0_4_12 +0 p1_4_12 >= -1
+0 x_4_24_0 -1 x_4_24_1 +0 x_4_24_2 -1 x_4_24_3 +1 x_4_12_0_sb -1 x_4_12_1_sb -1 x_4_12_2_sb -1 x_4_12_3_sb +0 p0_4_12 +0 p1_4_12 >= -4
+1 x_4_24_0 +0 x_4_24_1 +0 x_4_24_2 +1 x_4_24_3 +0 x_4_12_0_sb -1 x_4_12_1_sb -1 x_4_12_2_sb +1 x_4_12_3_sb +0 p0_4_12 -1 p1_4_12 >= -2
+0 x_4_24_0 +0 x_4_24_1 -1 x_4_24_2 +1 x_4_24_3 -1 x_4_12_0_sb +1 x_4_12_1_sb +0 x_4_12_2_sb -1 x_4_12_3_sb +0 p0_4_12 -1 p1_4_12 >= -3
+0 x_4_24_0 +1 x_4_24_1 +0 x_4_24_2 +1 x_4_24_3 -1 x_4_12_0_sb -1 x_4_12_1_sb +0 x_4_12_2_sb +1 x_4_12_3_sb +0 p0_4_12 -1 p1_4_12 >= -2
-1 x_4_24_0 +1 x_4_24_1 +0 x_4_24_2 -1 x_4_24_3 +0 x_4_12_0_sb +0 x_4_12_1_sb -1 x_4_12_2_sb +1 x_4_12_3_sb +0 p0_4_12 -1 p1_4_12 >= -3
-1 x_4_24_0 +0 x_4_24_1 +0 x_4_24_2 +0 x_4_24_3 -1 x_4_12_0_sb +1 x_4_12_1_sb +0 x_4_12_2_sb -1 x_4_12_3_sb +0 p0_4_12 -1 p1_4_12 >= -3
+0 x_4_24_0 +0 x_4_24_1 -1 x_4_24_2 +0 x_4_24_3 +1 x_4_12_0_sb +1 x_4_12_1_sb +0 x_4_12_2_sb +1 x_4_12_3_sb +0 p0_4_12 +0 p1_4_12 >= 0
+0 x_4_26_0 +0 x_4_26_1 +0 x_4_26_2 +0 x_4_26_3 +0 x_4_13_0_sb +0 x_4_13_1_sb +0 x_4_13_2_sb +0 x_4_13_3_sb -1 p0_4_13 -1 p1_4_13 >= -1
+0 x_4_26_0 +0 x_4_26_1 +0 x_4_26_2 +0 x_4_26_3 +0 x_4_13_0_sb +0 x_4_13_1_sb +0 x_4_13_2_sb -1 x_4_13_3_sb +1 p0_4_13 +1 p1_4_13 >= 0
+0 x_4_26_0 +0 x_4_26_1 +0 x_4_26_2 +0 x_4_26_3 +0 x_4_13_0_sb -1 x_4_13_1_sb +0 x_4_13_2_sb +0 x_4_13_3_sb +1 p0_4_13 +1 p1_4_13 >= 0
+0 x_4_26_0 +0 x_4_26_1 +0 x_4_26_2 +0 x_4_26_3 -1 x_4_13_0_sb +0 x_4_13_1_sb +0 x_4_13_2_sb +0 x_4_13_3_sb +1 p0_4_13 +1 p1_4_13 >= 0
+0 x_4_26_0 +0 x_4_26_1 +0 x_4_26_2 +0 x_4_26_3 +1 x_4_13_0_sb +1 x_4_13_1_sb +1 x_4_13_2_sb +1 x_4_13_3_sb +0 p0_4_13 -1 p1_4_13 >= 0
+0 x_4_26_0 +0 x_4_26_1 +0 x_4_26_2 -1 x_4_26_3 +1 x_4_13_0_sb +1 x_4_13_1_sb +0 x_4_13_2_sb +1 x_4_13_3_sb +0 p0_4_13 +1 p1_4_13 >= 0
-1 x_4_26_0 +0 x_4_26_1 -1 x_4_26_2 +0 x_4_26_3 +1 x_4_13_0_sb +0 x_4_13_1_sb +0 x_4_13_2_sb +1 x_4_13_3_sb +0 p0_4_13 -1 p1_4_13 >= -2
+1 x_4_26_0 +0 x_4_26_1 +1 x_4_26_2 +0 x_4_26_3 +1 x_4_13_0_sb +0 x_4_13_1_sb +1 x_4_13_2_sb +0 x_4_13_3_sb +0 p0_4_13 -1 p1_4_13 >= 0
+0 x_4_26_0 +0 x_4_26_1 +0 x_4_26_2 +1 x_4_26_3 +0 x_4_13_0_sb +1 x_4_13_1_sb -1 x_4_13_2_sb -1 x_4_13_3_sb +0 p0_4_13 -1 p1_4_13 >= -2
-1 x_4_26_0 +0 x_4_26_1 +0 x_4_26_2 -1 x_4_26_3 -1 x_4_13_0_sb +0 x_4_13_1_sb +0 x_4_13_2_sb +1 x_4_13_3_sb +0 p0_4_13 -1 p1_4_13 >= -3
+0 x_4_26_0 +0 x_4_26_1 +0 x_4_26_2 +1 x_4_26_3 -1 x_4_13_0_sb -1 x_4_13_1_sb -1 x_4_13_2_sb +0 x_4_13_3_sb +0 p0_4_13 -1 p1_4_13 >= -3
+1 x_4_26_0 +1 x_4_26_1 +0 x_4_26_2 +1 x_4_26_3 +0 x_4_13_0_sb +0 x_4_13_1_sb +0 x_4_13_2_sb +0 x_4_13_3_sb -1 p0_4_13 +0 p1_4_13 >= 0
+0 x_4_26_0 +0 x_4_26_1 +1 x_4_26_2 +1 x_4_26_3 +0 x_4_13_0_sb -1 x_4_13_1_sb +1 x_4_13_2_sb +0 x_4_13_3_sb +0 p0_4_13 -1 p1_4_13 >= -1
+0 x_4_26_0 +1 x_4_26_1 +0 x_4_26_2 -1 x_4_26_3 -1 x_4_13_0_sb +0 x_4_13_1_sb -1 x_4_13_2_sb +0 x_4_13_3_sb +0 p0_4_13 -1 p1_4_13 >= -3
+0 x_4_26_0 +1 x_4_26_1 +1 x_4_26_2 +0 x_4_26_3 +0 x_4_13_0_sb +0 x_4_13_1_sb +1 x_4_13_2_sb -1 x_4_13_3_sb +0 p0_4_13 -1 p1_4_13 >= -1
-1 x_4_26_0 +0 x_4_26_1 -1 x_4_26_2 +0 x_4_26_3 -1 x_4_13_0_sb +0 x_4_13_1_sb +1 x_4_13_2_sb +0 x_4_13_3_sb +0 p0_4_13 -1 p1_4_13 >= -3
+0 x_4_26_0 -1 x_4_26_1 -1 x_4_26_2 +0 x_4_26_3 +0 x_4_13_0_sb +1 x_4_13_1_sb +0 x_4_13_2_sb +1 x_4_13_3_sb +0 p0_4_13 -1 p1_4_13 >= -2
+0 x_4_26_0 -1 x_4_26_1 +0 x_4_26_2 +0 x_4_26_3 +1 x_4_13_0_sb +1 x_4_13_1_sb +0 x_4_13_2_sb +1 x_4_13_3_sb +0 p0_4_13 +1 p1_4_13 >= 0
-1 x_4_26_0 -1 x_4_26_1 +0 x_4_26_2 +1 x_4_26_3 +0 x_4_13_0_sb +1 x_4_13_1_sb +0 x_4_13_2_sb +1 x_4_13_3_sb +0 p0_4_13 -1 p1_4_13 >= -2
+0 x_4_26_0 -1 x_4_26_1 +0 x_4_26_2 +0 x_4_26_3 +1 x_4_13_0_sb +0 x_4_13_1_sb +1 x_4_13_2_sb +1 x_4_13_3_sb +0 p0_4_13 -1 p1_4_13 >= -1
-1 x_4_26_0 +0 x_4_26_1 -1 x_4_26_2 +0 x_4_26_3 +1 x_4_13_0_sb +1 x_4_13_1_sb +0 x_4_13_2_sb +0 x_4_13_3_sb +0 p0_4_13 -1 p1_4_13 >= -2
+0 x_4_26_0 +1 x_4_26_1 -1 x_4_26_2 -1 x_4_26_3 +0 x_4_13_0_sb +0 x_4_13_1_sb +0 x_4_13_2_sb +1 x_4_13_3_sb +0 p0_4_13 -1 p1_4_13 >= -2
-1 x_4_26_0 -1 x_4_26_1 +0 x_4_26_2 -1 x_4_26_3 +0 x_4_13_0_sb +1 x_4_13_1_sb +0 x_4_13_2_sb -1 x_4_13_3_sb +0 p0_4_13 -1 p1_4_13 >= -4
-1 x_4_26_0 +1 x_4_26_1 +0 x_4_26_2 +1 x_4_26_3 +0 x_4_13_0_sb +1 x_4_13_1_sb +0 x_4_13_2_sb +1 x_4_13_3_sb +0 p0_4_13 +1 p1_4_13 >= 0
+0 x_4_26_0 +0 x_4_26_1 +0 x_4_26_2 +0 x_4_26_3 +1 x_4_13_0_sb -1 x_4_13_1_sb +0 x_4_13_2_sb -1 x_4_13_3_sb +0 p0_4_13 +1 p1_4_13 >= -1
+1 x_4_26_0 +0 x_4_26_1 +1 x_4_26_2 +0 x_4_26_3 +1 x_4_13_0_sb -1 x_4_13_1_sb +0 x_4_13_2_sb +0 x_4_13_3_sb +0 p0_4_13 -1 p1_4_13 >= -1
+0 x_4_26_0 +1 x_4_26_1 +0 x_4_26_2 +1 x_4_26_3 +0 x_4_13_0_sb -1 x_4_13_1_sb -1 x_4_13_2_sb +0 x_4_13_3_sb +0 p0_4_13 -1 p1_4_13 >= -2
+1 x_4_26_0 -1 x_4_26_1 +0 x_4_26_2 -1 x_4_26_3 +0 x_4_13_0_sb +0 x_4_13_1_sb +1 x_4_13_2_sb +0 x_4_13_3_sb +0 p0_4_13 +0 p1_4_13 >= -1
+1 x_4_26_0 -1 x_4_26_1 -1 x_4_26_2 +0 x_4_26_3 +0 x_4_13_0_sb +0 x_4_13_1_sb +1 x_4_13_2_sb -1 x_4_13_3_sb +0 p0_4_13 -1 p1_4_13 >= -3
+1 x_4_26_0 -1 x_4_26_1 +0 x_4_26_2 -1 x_4_26_3 +0 x_4_13_0_sb +0 x_4_13_1_sb +0 x_4_13_2_sb +0 x_4_13_3_sb +0 p0_4_13 +1 p1_4_13 >= -1
+1 x_4_26_0 +0 x_4_26_1 +0 x_4_26_2 +0 x_4_26_3 -1 x_4_13_0_sb +1 x_4_13_1_sb +0 x_4_13_2_sb -1 x_4_13_3_sb +0 p0_4_13 +1 p1_4_13 >= -1
+1 x_4_26_0 +0 x_4_26_1 +0 x_4_26_2 +0 x_4_26_3 -1 x_4_13_0_sb -1 x_4_13_1_sb +0 x_4_13_2_sb +1 x_4_13_3_sb +0 p0_4_13 +1 p1_4_13 >= -1
-1 x_4_26_0 -1 x_4_26_1 +0 x_4_26_2 +1 x_4_26_3 +1 x_4_13_0_sb +0 x_4_13_1_sb +0 x_4_13_2_sb +0 x_4_13_3_sb +0 p0_4_13 +1 p1_4_13 >= -1
-1 x_4_26_0 +1 x_4_26_1 +0 x_4_26_2 -1 x_4_26_3 +1 x_4_13_0_sb +0 x_4_13_1_sb +0 x_4_13_2_sb +0 x_4_13_3_sb +0 p0_4_13 +1 p1_4_13 >= -1
+0 x_4_26_0 -1 x_4_26_1 +0 x_4_26_2 -1 x_4_26_3 +0 x_4_13_0_sb -1 x_4_13_1_sb +0 x_4_13_2_sb -1 x_4_13_3_sb +0 p0_4_13 +1 p1_4_13 >= -3
+1 x_4_26_0 +1 x_4_26_1 +0 x_4_26_2 +1 x_4_26_3 +0 x_4_13_0_sb +0 x_4_13_1_sb -1 x_4_13_2_sb +0 x_4_13_3_sb +0 p0_4_13 +0 p1_4_13 >= 0
-1 x_4_26_0 +0 x_4_26_1 +1 x_4_26_2 -1 x_4_26_3 +0 x_4_13_0_sb -1 x_4_13_1_sb -1 x_4_13_2_sb +0 x_4_13_3_sb +0 p0_4_13 -1 p1_4_13 >= -4
+1 x_4_26_0 +1 x_4_26_1 +0 x_4_26_2 -1 x_4_26_3 +1 x_4_13_0_sb +1 x_4_13_1_sb +0 x_4_13_2_sb -1 x_4_13_3_sb +0 p0_4_13 -1 p1_4_13 >= -2
+1 x_4_26_0 +0 x_4_26_1 +1 x_4_26_2 +0 x_4_26_3 +0 x_4_13_0_sb +1 x_4_13_1_sb +1 x_4_13_2_sb +1 x_4_13_3_sb +0 p0_4_13 -1 p1_4_13 >= 0
+1 x_4_26_0 +0 x_4_26_1 -1 x_4_26_2 -1 x_4_26_3 -1 x_4_13_0_sb -1 x_4_13_1_sb +0 x_4_13_2_sb -1 x_4_13_3_sb +0 p0_4_13 -1 p1_4_13 >= -5
+0 x_4_26_0 +0 x_4_26_1 +1 x_4_26_2 +1 x_4_26_3 -1 x_4_13_0_sb +0 x_4_13_1_sb -1 x_4_13_2_sb +0 x_4_13_3_sb +0 p0_4_13 -1 p1_4_13 >= -2
+0 x_4_26_0 +0 x_4_26_1 +1 x_4_26_2 +0 x_4_26_3 +1 x_4_13_0_sb -1 x_4_13_1_sb +0 x_4_13_2_sb -1 x_4_13_3_sb +0 p0_4_13 +0 p1_4_13 >= -1
+0 x_4_26_0 -1 x_4_26_1 +0 x_4_26_2 -1 x_4_26_3 +0 x_4_13_0_sb +1 x_4_13_1_sb +0 x_4_13_2_sb +1 x_4_13_3_sb +0 p0_4_13 +1 p1_4_13 >= -1
+0 x_4_26_0 +1 x_4_26_1 +0 x_4_26_2 +1 x_4_26_3 +0 x_4_13_0_sb -1 x_4_13_1_sb +0 x_4_13_2_sb -1 x_4_13_3_sb +0 p0_4_13 +1 p1_4_13 >= -1
+1 x_4_26_0 -1 x_4_26_1 +1 x_4_26_2 -1 x_4_26_3 +1 x_4_13_0_sb +0 x_4_13_1_sb +0 x_4_13_2_sb +0 x_4_13_3_sb +0 p0_4_13 +0 p1_4_13 >= -1
+1 x_4_26_0 +0 x_4_26_1 +0 x_4_26_2 +0 x_4_26_3 +1 x_4_13_0_sb -1 x_4_13_1_sb +1 x_4_13_2_sb -1 x_4_13_3_sb +0 p0_4_13 +0 p1_4_13 >= -1
+0 x_4_26_0 -1 x_4_26_1 +0 x_4_26_2 -1 x_4_26_3 +1 x_4_13_0_sb -1 x_4_13_1_sb -1 x_4_13_2_sb -1 x_4_13_3_sb +0 p0_4_13 +0 p1_4_13 >= -4
+1 x_4_26_0 +0 x_4_26_1 +0 x_4_26_2 +1 x_4_26_3 +0 x_4_13_0_sb -1 x_4_13_1_sb -1 x_4_13_2_sb +1 x_4_13_3_sb +0 p0_4_13 -1 p1_4_13 >= -2
+0 x_4_26_0 +0 x_4_26_1 -1 x_4_26_2 +1 x_4_26_3 -1 x_4_13_0_sb +1 x_4_13_1_sb +0 x_4_13_2_sb -1 x_4_13_3_sb +0 p0_4_13 -1 p1_4_13 >= -3
+0 x_4_26_0 +1 x_4_26_1 +0 x_4_26_2 +1 x_4_26_3 -1 x_4_13_0_sb -1 x_4_13_1_sb +0 x_4_13_2_sb +1 x_4_13_3_sb +0 p0_4_13 -1 p1_4_13 >= -2
-1 x_4_26_0 +1 x_4_26_1 +0 x_4_26_2 -1 x_4_26_3 +0 x_4_13_0_sb +0 x_4_13_1_sb -1 x_4_13_2_sb +1 x_4_13_3_sb +0 p0_4_13 -1 p1_4_13 >= -3
-1 x_4_26_0 +0 x_4_26_1 +0 x_4_26_2 +0 x_4_26_3 -1 x_4_13_0_sb +1 x_4_13_1_sb +0 x_4_13_2_sb -1 x_4_13_3_sb +0 p0_4_13 -1 p1_4_13 >= -3
+0 x_4_26_0 +0 x_4_26_1 -1 x_4_26_2 +0 x_4_26_3 +1 x_4_13_0_sb +1 x_4_13_1_sb +0 x_4_13_2_sb +1 x_4_13_3_sb +0 p0_4_13 +0 p1_4_13 >= 0
+0 x_4_28_0 +0 x_4_28_1 +0 x_4_28_2 +0 x_4_28_3 +0 x_4_14_0_sb +0 x_4_14_1_sb +0 x_4_14_2_sb +0 x_4_14_3_sb -1 p0_4_14 -1 p1_4_14 >= -1
+0 x_4_28_0 +0 x_4_28_1 +0 x_4_28_2 +0 x_4_28_3 +0 x_4_14_0_sb +0 x_4_14_1_sb +0 x_4_14_2_sb -1 x_4_14_3_sb +1 p0_4_14 +1 p1_4_14 >= 0
+0 x_4_28_0 +0 x_4_28_1 +0 x_4_28_2 +0 x_4_28_3 +0 x_4_14_0_sb -1 x_4_14_1_sb +0 x_4_14_2_sb +0 x_4_14_3_sb +1 p0_4_14 +1 p1_4_14 >= 0
+0 x_4_28_0 +0 x_4_28_1 +0 x_4_28_2 +0 x_4_28_3 -1 x_4_14_0_sb +0 x_4_14_1_sb +0 x_4_14_2_sb +0 x_4_14_3_sb +1 p0_4_14 +1 p1_4_14 >= 0
+0 x_4_28_0 +0 x_4_28_1 +0 x_4_28_2 +0 x_4_28_3 +1 x_4_14_0_sb +1 x_4_14_1_sb +1 x_4_14_2_sb +1 x_4_14_3_sb +0 p0_4_14 -1 p1_4_14 >= 0
+0 x_4_28_0 +0 x_4_28_1 +0 x_4_28_2 -1 x_4_28_3 +1 x_4_14_0_sb +1 x_4_14_1_sb +0 x_4_14_2_sb +1 x_4_14_3_sb +0 p0_4_14 +1 p1_4_14 >= 0
-1 x_4_28_0 +0 x_4_28_1 -1 x_4_28_2 +0 x_4_28_3 +1 x_4_14_0_sb +0 x_4_14_1_sb +0 x_4_14_2_sb +1 x_4_14_3_sb +0 p0_4_14 -1 p1_4_14 >= -2
+1 x_4_28_0 +0 x_4_28_1 +1 x_4_28_2 +0 x_4_28_3 +1 x_4_14_0_sb +0 x_4_14_1_sb +1 x_4_14_2_sb +0 x_4_14_3_sb +0 p0_4_14 -1 p1_4_14 >= 0
+0 x_4_28_0 +0 x_4_28_1 +0 x_4_28_2 +1 x_4_28_3 +0 x_4_14_0_sb +1 x_4_14_1_sb -1 x_4_14_2_sb -1 x_4_14_3_sb +0 p0_4_14 -1 p1_4_14 >= -2
-1 x_4_28_0 +0 x_4_28_1 +0 x_4_28_2 -1 x_4_28_3 -1 x_4_14_0_sb +0 x_4_14_1_sb +0 x_4_14_2_sb +1 x_4_14_3_sb +0 p0_4_14 -1 p1_4_14 >= -3
+0 x_4_28_0 +0 x_4_28_1 +0 x_4_28_2 +1 x_4_28_3 -1 x_4_14_0_sb -1 x_4_14_1_sb -1 x_4_14_2_sb +0 x_4_14_3_sb +0 p0_4_14 -1 p1_4_14 >= -3
+1 x_4_28_0 +1 x_4_28_1 +0 x_4_28_2 +1 x_4_28_3 +0 x_4_14_0_sb +0 x_4_14_1_sb +0 x_4_14_2_sb +0 x_4_14_3_sb -1 p0_4_14 +0 p1_4_14 >= 0
+0 x_4_28_0 +0 x_4_28_1 +1 x_4_28_2 +1 x_4_28_3 +0 x_4_14_0_sb -1 x_4_14_1_sb +1 x_4_14_2_sb +0 x_4_14_3_sb +0 p0_4_14 -1 p1_4_14 >= -1
+0 x_4_28_0 +1 x_4_28_1 +0 x_4_28_2 -1 x_4_28_3 -1 x_4_14_0_sb +0 x_4_14_1_sb -1 x_4_14_2_sb +0 x_4_14_3_sb +0 p0_4_14 -1 p1_4_14 >= -3
+0 x_4_28_0 +1 x_4_28_1 +1 x_4_28_2 +0 x_4_28_3 +0 x_4_14_0_sb +0 x_4_14_1_sb +1 x_4_14_2_sb -1 x_4_14_3_sb +0 p0_4_14 -1 p1_4_14 >= -1
-1 x_4_28_0 +0 x_4_28_1 -1 x_4_28_2 +0 x_4_28_3 -1 x_4_14_0_sb +0 x_4_14_1_sb +1 x_4_14_2_sb +0 x_4_14_3_sb +0 p0_4_14 -1 p1_4_14 >= -3
+0 x_4_28_0 -1 x_4_28_1 -1 x_4_28_2 +0 x_4_28_3 +0 x_4_14_0_sb +1 x_4_14_1_sb +0 x_4_14_2_sb +1 x_4_14_3_sb +0 p0_4_14 -1 p1_4_14 >= -2
+0 x_4_28_0 -1 x_4_28_1 +0 x_4_28_2 +0 x_4_28_3 +1 x_4_14_0_sb +1 x_4_14_1_sb +0 x_4_14_2_sb +1 x_4_14_3_sb +0 p0_4_14 +1 p1_4_14 >= 0
-1 x_4_28_0 -1 x_4_28_1 +0 x_4_28_2 +1 x_4_28_3 +0 x_4_14_0_sb +1 x_4_14_1_sb +0 x_4_14_2_sb +1 x_4_14_3_sb +0 p0_4_14 -1 p1_4_14 >= -2
+0 x_4_28_0 -1 x_4_28_1 +0 x_4_28_2 +0 x_4_28_3 +1 x_4_14_0_sb +0 x_4_14_1_sb +1 x_4_14_2_sb +1 x_4_14_3_sb +0 p0_4_14 -1 p1_4_14 >= -1
-1 x_4_28_0 +0 x_4_28_1 -1 x_4_28_2 +0 x_4_28_3 +1 x_4_14_0_sb +1 x_4_14_1_sb +0 x_4_14_2_sb +0 x_4_14_3_sb +0 p0_4_14 -1 p1_4_14 >= -2
+0 x_4_28_0 +1 x_4_28_1 -1 x_4_28_2 -1 x_4_28_3 +0 x_4_14_0_sb +0 x_4_14_1_sb +0 x_4_14_2_sb +1 x_4_14_3_sb +0 p0_4_14 -1 p1_4_14 >= -2
-1 x_4_28_0 -1 x_4_28_1 +0 x_4_28_2 -1 x_4_28_3 +0 x_4_14_0_sb +1 x_4_14_1_sb +0 x_4_14_2_sb -1 x_4_14_3_sb +0 p0_4_14 -1 p1_4_14 >= -4
-1 x_4_28_0 +1 x_4_28_1 +0 x_4_28_2 +1 x_4_28_3 +0 x_4_14_0_sb +1 x_4_14_1_sb +0 x_4_14_2_sb +1 x_4_14_3_sb +0 p0_4_14 +1 p1_4_14 >= 0
+0 x_4_28_0 +0 x_4_28_1 +0 x_4_28_2 +0 x_4_28_3 +1 x_4_14_0_sb -1 x_4_14_1_sb +0 x_4_14_2_sb -1 x_4_14_3_sb +0 p0_4_14 +1 p1_4_14 >= -1
+1 x_4_28_0 +0 x_4_28_1 +1 x_4_28_2 +0 x_4_28_3 +1 x_4_14_0_sb -1 x_4_14_1_sb +0 x_4_14_2_sb +0 x_4_14_3_sb +0 p0_4_14 -1 p1_4_14 >= -1
+0 x_4_28_0 +1 x_4_28_1 +0 x_4_28_2 +1 x_4_28_3 +0 x_4_14_0_sb -1 x_4_14_1_sb -1 x_4_14_2_sb +0 x_4_14_3_sb +0 p0_4_14 -1 p1_4_14 >= -2
+1 x_4_28_0 -1 x_4_28_1 +0 x_4_28_2 -1 x_4_28_3 +0 x_4_14_0_sb +0 x_4_14_1_sb +1 x_4_14_2_sb +0 x_4_14_3_sb +0 p0_4_14 +0 p1_4_14 >= -1
+1 x_4_28_0 -1 x_4_28_1 -1 x_4_28_2 +0 x_4_28_3 +0 x_4_14_0_sb +0 x_4_14_1_sb +1 x_4_14_2_sb -1 x_4_14_3_sb +0 p0_4_14 -1 p1_4_14 >= -3
+1 x_4_28_0 -1 x_4_28_1 +0 x_4_28_2 -1 x_4_28_3 +0 x_4_14_0_sb +0 x_4_14_1_sb +0 x_4_14_2_sb +0 x_4_14_3_sb +0 p0_4_14 +1 p1_4_14 >= -1
+1 x_4_28_0 +0 x_4_28_1 +0 x_4_28_2 +0 x_4_28_3 -1 x_4_14_0_sb +1 x_4_14_1_sb +0 x_4_14_2_sb -1 x_4_14_3_sb +0 p0_4_14 +1 p1_4_14 >= -1
+1 x_4_28_0 +0 x_4_28_1 +0 x_4_28_2 +0 x_4_28_3 -1 x_4_14_0_sb -1 x_4_14_1_sb +0 x_4_14_2_sb +1 x_4_14_3_sb +0 p0_4_14 +1 p1_4_14 >= -1
-1 x_4_28_0 -1 x_4_28_1 +0 x_4_28_2 +1 x_4_28_3 +1 x_4_14_0_sb +0 x_4_14_1_sb +0 x_4_14_2_sb +0 x_4_14_3_sb +0 p0_4_14 +1 p1_4_14 >= -1
-1 x_4_28_0 +1 x_4_28_1 +0 x_4_28_2 -1 x_4_28_3 +1 x_4_14_0_sb +0 x_4_14_1_sb +0 x_4_14_2_sb +0 x_4_14_3_sb +0 p0_4_14 +1 p1_4_14 >= -1
+0 x_4_28_0 -1 x_4_28_1 +0 x_4_28_2 -1 x_4_28_3 +0 x_4_14_0_sb -1 x_4_14_1_sb +0 x_4_14_2_sb -1 x_4_14_3_sb +0 p0_4_14 +1 p1_4_14 >= -3
+1 x_4_28_0 +1 x_4_28_1 +0 x_4_28_2 +1 x_4_28_3 +0 x_4_14_0_sb +0 x_4_14_1_sb -1 x_4_14_2_sb +0 x_4_14_3_sb +0 p0_4_14 +0 p1_4_14 >= 0
-1 x_4_28_0 +0 x_4_28_1 +1 x_4_28_2 -1 x_4_28_3 +0 x_4_14_0_sb -1 x_4_14_1_sb -1 x_4_14_2_sb +0 x_4_14_3_sb +0 p0_4_14 -1 p1_4_14 >= -4
+1 x_4_28_0 +1 x_4_28_1 +0 x_4_28_2 -1 x_4_28_3 +1 x_4_14_0_sb +1 x_4_14_1_sb +0 x_4_14_2_sb -1 x_4_14_3_sb +0 p0_4_14 -1 p1_4_14 >= -2
+1 x_4_28_0 +0 x_4_28_1 +1 x_4_28_2 +0 x_4_28_3 +0 x_4_14_0_sb +1 x_4_14_1_sb +1 x_4_14_2_sb +1 x_4_14_3_sb +0 p0_4_14 -1 p1_4_14 >= 0
+1 x_4_28_0 +0 x_4_28_1 -1 x_4_28_2 -1 x_4_28_3 -1 x_4_14_0_sb -1 x_4_14_1_sb +0 x_4_14_2_sb -1 x_4_14_3_sb +0 p0_4_14 -1 p1_4_14 >= -5
+0 x_4_28_0 +0 x_4_28_1 +1 x_4_28_2 +1 x_4_28_3 -1 x_4_14_0_sb +0 x_4_14_1_sb -1 x_4_14_2_sb +0 x_4_14_3_sb +0 p0_4_14 -1 p1_4_14 >= -2
+0 x_4_28_0 +0 x_4_28_1 +1 x_4_28_2 +0 x_4_28_3 +1 x_4_14_0_sb -1 x_4_14_1_sb +0 x_4_14_2_sb -1 x_4_14_3_sb +0 p0_4_14 +0 p1_4_14 >= -1
+0 x_4_28_0 -1 x_4_28_1 +0 x_4_28_2 -1 x_4_28_3 +0 x_4_14_0_sb +1 x_4_14_1_sb +0 x_4_14_2_sb +1 x_4_14_3_sb +0 p0_4_14 +1 p1_4_14 >= -1
+0 x_4_28_0 +1 x_4_28_1 +0 x_4_28_2 +1 x_4_28_3 +0 x_4_14_0_sb -1 x_4_14_1_sb +0 x_4_14_2_sb -1 x_4_14_3_sb +0 p0_4_14 +1 p1_4_14 >= -1
+1 x_4_28_0 -1 x_4_28_1 +1 x_4_28_2 -1 x_4_28_3 +1 x_4_14_0_sb +0 x_4_14_1_sb +0 x_4_14_2_sb +0 x_4_14_3_sb +0 p0_4_14 +0 p1_4_14 >= -1
+1 x_4_28_0 +0 x_4_28_1 +0 x_4_28_2 +0 x_4_28_3 +1 x_4_14_0_sb -1 x_4_14_1_sb +1 x_4_14_2_sb -1 x_4_14_3_sb +0 p0_4_14 +0 p1_4_14 >= -1
+0 x_4_28_0 -1 x_4_28_1 +0 x_4_28_2 -1 x_4_28_3 +1 x_4_14_0_sb -1 x_4_14_1_sb -1 x_4_14_2_sb -1 x_4_14_3_sb +0 p0_4_14 +0 p1_4_14 >= -4
+1 x_4_28_0 +0 x_4_28_1 +0 x_4_28_2 +1 x_4_28_3 +0 x_4_14_0_sb -1 x_4_14_1_sb -1 x_4_14_2_sb +1 x_4_14_3_sb +0 p0_4_14 -1 p1_4_14 >= -2
+0 x_4_28_0 +0 x_4_28_1 -1 x_4_28_2 +1 x_4_28_3 -1 x_4_14_0_sb +1 x_4_14_1_sb +0 x_4_14_2_sb -1 x_4_14_3_sb +0 p0_4_14 -1 p1_4_14 >= -3
+0 x_4_28_0 +1 x_4_28_1 +0 x_4_28_2 +1 x_4_28_3 -1 x_4_14_0_sb -1 x_4_14_1_sb +0 x_4_14_2_sb +1 x_4_14_3_sb +0 p0_4_14 -1 p1_4_14 >= -2
-1 x_4_28_0 +1 x_4_28_1 +0 x_4_28_2 -1 x_4_28_3 +0 x_4_14_0_sb +0 x_4_14_1_sb -1 x_4_14_2_sb +1 x_4_14_3_sb +0 p0_4_14 -1 p1_4_14 >= -3
-1 x_4_28_0 +0 x_4_28_1 +0 x_4_28_2 +0 x_4_28_3 -1 x_4_14_0_sb +1 x_4_14_1_sb +0 x_4_14_2_sb -1 x_4_14_3_sb +0 p0_4_14 -1 p1_4_14 >= -3
+0 x_4_28_0 +0 x_4_28_1 -1 x_4_28_2 +0 x_4_28_3 +1 x_4_14_0_sb +1 x_4_14_1_sb +0 x_4_14_2_sb +1 x_4_14_3_sb +0 p0_4_14 +0 p1_4_14 >= 0
+0 x_4_30_0 +0 x_4_30_1 +0 x_4_30_2 +0 x_4_30_3 +0 x_4_15_0_sb +0 x_4_15_1_sb +0 x_4_15_2_sb +0 x_4_15_3_sb -1 p0_4_15 -1 p1_4_15 >= -1
+0 x_4_30_0 +0 x_4_30_1 +0 x_4_30_2 +0 x_4_30_3 +0 x_4_15_0_sb +0 x_4_15_1_sb +0 x_4_15_2_sb -1 x_4_15_3_sb +1 p0_4_15 +1 p1_4_15 >= 0
+0 x_4_30_0 +0 x_4_30_1 +0 x_4_30_2 +0 x_4_30_3 +0 x_4_15_0_sb -1 x_4_15_1_sb +0 x_4_15_2_sb +0 x_4_15_3_sb +1 p0_4_15 +1 p1_4_15 >= 0
+0 x_4_30_0 +0 x_4_30_1 +0 x_4_30_2 +0 x_4_30_3 -1 x_4_15_0_sb +0 x_4_15_1_sb +0 x_4_15_2_sb +0 x_4_15_3_sb +1 p0_4_15 +1 p1_4_15 >= 0
+0 x_4_30_0 +0 x_4_30_1 +0 x_4_30_2 +0 x_4_30_3 +1 x_4_15_0_sb +1 x_4_15_1_sb +1 x_4_15_2_sb +1 x_4_15_3_sb +0 p0_4_15 -1 p1_4_15 >= 0
+0 x_4_30_0 +0 x_4_30_1 +0 x_4_30_2 -1 x_4_30_3 +1 x_4_15_0_sb +1 x_4_15_1_sb +0 x_4_15_2_sb +1 x_4_15_3_sb +0 p0_4_15 +1 p1_4_15 >= 0
-1 x_4_30_0 +0 x_4_30_1 -1 x_4_30_2 +0 x_4_30_3 +1 x_4_15_0_sb +0 x_4_15_1_sb +0 x_4_15_2_sb +1 x_4_15_3_sb +0 p0_4_15 -1 p1_4_15 >= -2
+1 x_4_30_0 +0 x_4_30_1 +1 x_4_30_2 +0 x_4_30_3 +1 x_4_15_0_sb +0 x_4_15_1_sb +1 x_4_15_2_sb +0 x_4_15_3_sb +0 p0_4_15 -1 p1_4_15 >= 0
+0 x_4_30_0 +0 x_4_30_1 +0 x_4_30_2 +1 x_4_30_3 +0 x_4_15_0_sb +1 x_4_15_1_sb -1 x_4_15_2_sb -1 x_4_15_3_sb +0 p0_4_15 -1 p1_4_15 >= -2
-1 x_4_30_0 +0 x_4_30_1 +0 x_4_30_2 -1 x_4_30_3 -1 x_4_15_0_sb +0 x_4_15_1_sb +0 x_4_15_2_sb +1 x_4_15_3_sb +0 p0_4_15 -1 p1_4_15 >= -3
+0 x_4_30_0 +0 x_4_30_1 +0 x_4_30_2 +1 x_4_30_3 -1 x_4_15_0_sb -1 x_4_15_1_sb -1 x_4_15_2_sb +0 x_4_15_3_sb +0 p0_4_15 -1 p1_4_15 >= -3
+1 x_4_30_0 +1 x_4_30_1 +0 x_4_30_2 +1 x_4_30_3 +0 x_4_15_0_sb +0 x_4_15_1_sb +0 x_4_15_2_sb +0 x_4_15_3_sb -1 p0_4_15 +0 p1_4_15 >= 0
+0 x_4_30_0 +0 x_4_30_1 +1 x_4_30_2 +1 x_4_30_3 +0 x_4_15_0_sb -1 x_4_15_1_sb +1 x_4_15_2_sb +0 x_4_15_3_sb +0 p0_4_15 -1 p1_4_15 >= -1
+0 x_4_30_0 +1 x_4_30_1 +0 x_4_30_2 -1 x_4_30_3 -1 x_4_15_0_sb +0 x_4_15_1_sb -1 x_4_15_2_sb +0 x_4_15_3_sb +0 p0_4_15 -1 p1_4_15 >= -3
+0 x_4_30_0 +1 x_4_30_1 +1 x_4_30_2 +0 x_4_30_3 +0 x_4_15_0_sb +0 x_4_15_1_sb +1 x_4_15_2_sb -1 x_4_15_3_sb +0 p0_4_15 -1 p1_4_15 >= -1
-1 x_4_30_0 +0 x_4_30_1 -1 x_4_30_2 +0 x_4_30_3 -1 x_4_15_0_sb +0 x_4_15_1_sb +1 x_4_15_2_sb +0 x_4_15_3_sb +0 p0_4_15 -1 p1_4_15 >= -3
+0 x_4_30_0 -1 x_4_30_1 -1 x_4_30_2 +0 x_4_30_3 +0 x_4_15_0_sb +1 x_4_15_1_sb +0 x_4_15_2_sb +1 x_4_15_3_sb +0 p0_4_15 -1 p1_4_15 >= -2
+0 x_4_30_0 -1 x_4_30_1 +0 x_4_30_2 +0 x_4_30_3 +1 x_4_15_0_sb +1 x_4_15_1_sb +0 x_4_15_2_sb +1 x_4_15_3_sb +0 p0_4_15 +1 p1_4_15 >= 0
-1 x_4_30_0 -1 x_4_30_1 +0 x_4_30_2 +1 x_4_30_3 +0 x_4_15_0_sb +1 x_4_15_1_sb +0 x_4_15_2_sb +1 x_4_15_3_sb +0 p0_4_15 -1 p1_4_15 >= -2
+0 x_4_30_0 -1 x_4_30_1 +0 x_4_30_2 +0 x_4_30_3 +1 x_4_15_0_sb +0 x_4_15_1_sb +1 x_4_15_2_sb +1 x_4_15_3_sb +0 p0_4_15 -1 p1_4_15 >= -1
-1 x_4_30_0 +0 x_4_30_1 -1 x_4_30_2 +0 x_4_30_3 +1 x_4_15_0_sb +1 x_4_15_1_sb +0 x_4_15_2_sb +0 x_4_15_3_sb +0 p0_4_15 -1 p1_4_15 >= -2
+0 x_4_30_0 +1 x_4_30_1 -1 x_4_30_2 -1 x_4_30_3 +0 x_4_15_0_sb +0 x_4_15_1_sb +0 x_4_15_2_sb +1 x_4_15_3_sb +0 p0_4_15 -1 p1_4_15 >= -2
-1 x_4_30_0 -1 x_4_30_1 +0 x_4_30_2 -1 x_4_30_3 +0 x_4_15_0_sb +1 x_4_15_1_sb +0 x_4_15_2_sb -1 x_4_15_3_sb +0 p0_4_15 -1 p1_4_15 >= -4
-1 x_4_30_0 +1 x_4_30_1 +0 x_4_30_2 +1 x_4_30_3 +0 x_4_15_0_sb +1 x_4_15_1_sb +0 x_4_15_2_sb +1 x_4_15_3_sb +0 p0_4_15 +1 p1_4_15 >= 0
+0 x_4_30_0 +0 x_4_30_1 +0 x_4_30_2 +0 x_4_30_3 +1 x_4_15_0_sb -1 x_4_15_1_sb +0 x_4_15_2_sb -1 x_4_15_3_sb +0 p0_4_15 +1 p1_4_15 >= -1
+1 x_4_30_0 +0 x_4_30_1 +1 x_4_30_2 +0 x_4_30_3 +1 x_4_15_0_sb -1 x_4_15_1_sb +0 x_4_15_2_sb +0 x_4_15_3_sb +0 p0_4_15 -1 p1_4_15 >= -1
+0 x_4_30_0 +1 x_4_30_1 +0 x_4_30_2 +1 x_4_30_3 +0 x_4_15_0_sb -1 x_4_15_1_sb -1 x_4_15_2_sb +0 x_4_15_3_sb +0 p0_4_15 -1 p1_4_15 >= -2
+1 x_4_30_0 -1 x_4_30_1 +0 x_4_30_2 -1 x_4_30_3 +0 x_4_15_0_sb +0 x_4_15_1_sb +1 x_4_15_2_sb +0 x_4_15_3_sb +0 p0_4_15 +0 p1_4_15 >= -1
+1 x_4_30_0 -1 x_4_30_1 -1 x_4_30_2 +0 x_4_30_3 +0 x_4_15_0_sb +0 x_4_15_1_sb +1 x_4_15_2_sb -1 x_4_15_3_sb +0 p0_4_15 -1 p1_4_15 >= -3
+1 x_4_30_0 -1 x_4_30_1 +0 x_4_30_2 -1 x_4_30_3 +0 x_4_15_0_sb +0 x_4_15_1_sb +0 x_4_15_2_sb +0 x_4_15_3_sb +0 p0_4_15 +1 p1_4_15 >= -1
+1 x_4_30_0 +0 x_4_30_1 +0 x_4_30_2 +0 x_4_30_3 -1 x_4_15_0_sb +1 x_4_15_1_sb +0 x_4_15_2_sb -1 x_4_15_3_sb +0 p0_4_15 +1 p1_4_15 >= -1
+1 x_4_30_0 +0 x_4_30_1 +0 x_4_30_2 +0 x_4_30_3 -1 x_4_15_0_sb -1 x_4_15_1_sb +0 x_4_15_2_sb +1 x_4_15_3_sb +0 p0_4_15 +1 p1_4_15 >= -1
-1 x_4_30_0 -1 x_4_30_1 +0 x_4_30_2 +1 x_4_30_3 +1 x_4_15_0_sb +0 x_4_15_1_sb +0 x_4_15_2_sb +0 x_4_15_3_sb +0 p0_4_15 +1 p1_4_15 >= -1
-1 x_4_30_0 +1 x_4_30_1 +0 x_4_30_2 -1 x_4_30_3 +1 x_4_15_0_sb +0 x_4_15_1_sb +0 x_4_15_2_sb +0 x_4_15_3_sb +0 p0_4_15 +1 p1_4_15 >= -1
+0 x_4_30_0 -1 x_4_30_1 +0 x_4_30_2 -1 x_4_30_3 +0 x_4_15_0_sb -1 x_4_15_1_sb +0 x_4_15_2_sb -1 x_4_15_3_sb +0 p0_4_15 +1 p1_4_15 >= -3
+1 x_4_30_0 +1 x_4_30_1 +0 x_4_30_2 +1 x_4_30_3 +0 x_4_15_0_sb +0 x_4_15_1_sb -1 x_4_15_2_sb +0 x_4_15_3_sb +0 p0_4_15 +0 p1_4_15 >= 0
-1 x_4_30_0 +0 x_4_30_1 +1 x_4_30_2 -1 x_4_30_3 +0 x_4_15_0_sb -1 x_4_15_1_sb -1 x_4_15_2_sb +0 x_4_15_3_sb +0 p0_4_15 -1 p1_4_15 >= -4
+1 x_4_30_0 +1 x_4_30_1 +0 x_4_30_2 -1 x_4_30_3 +1 x_4_15_0_sb +1 x_4_15_1_sb +0 x_4_15_2_sb -1 x_4_15_3_sb +0 p0_4_15 -1 p1_4_15 >= -2
+1 x_4_30_0 +0 x_4_30_1 +1 x_4_30_2 +0 x_4_30_3 +0 x_4_15_0_sb +1 x_4_15_1_sb +1 x_4_15_2_sb +1 x_4_15_3_sb +0 p0_4_15 -1 p1_4_15 >= 0
+1 x_4_30_0 +0 x_4_30_1 -1 x_4_30_2 -1 x_4_30_3 -1 x_4_15_0_sb -1 x_4_15_1_sb +0 x_4_15_2_sb -1 x_4_15_3_sb +0 p0_4_15 -1 p1_4_15 >= -5
+0 x_4_30_0 +0 x_4_30_1 +1 x_4_30_2 +1 x_4_30_3 -1 x_4_15_0_sb +0 x_4_15_1_sb -1 x_4_15_2_sb +0 x_4_15_3_sb +0 p0_4_15 -1 p1_4_15 >= -2
+0 x_4_30_0 +0 x_4_30_1 +1 x_4_30_2 +0 x_4_30_3 +1 x_4_15_0_sb -1 x_4_15_1_sb +0 x_4_15_2_sb -1 x_4_15_3_sb +0 p0_4_15 +0 p1_4_15 >= -1
+0 x_4_30_0 -1 x_4_30_1 +0 x_4_30_2 -1 x_4_30_3 +0 x_4_15_0_sb +1 x_4_15_1_sb +0 x_4_15_2_sb +1 x_4_15_3_sb +0 p0_4_15 +1 p1_4_15 >= -1
+0 x_4_30_0 +1 x_4_30_1 +0 x_4_30_2 +1 x_4_30_3 +0 x_4_15_0_sb -1 x_4_15_1_sb +0 x_4_15_2_sb -1 x_4_15_3_sb +0 p0_4_15 +1 p1_4_15 >= -1
+1 x_4_30_0 -1 x_4_30_1 +1 x_4_30_2 -1 x_4_30_3 +1 x_4_15_0_sb +0 x_4_15_1_sb +0 x_4_15_2_sb +0 x_4_15_3_sb +0 p0_4_15 +0 p1_4_15 >= -1
+1 x_4_30_0 +0 x_4_30_1 +0 x_4_30_2 +0 x_4_30_3 +1 x_4_15_0_sb -1 x_4_15_1_sb +1 x_4_15_2_sb -1 x_4_15_3_sb +0 p0_4_15 +0 p1_4_15 >= -1
+0 x_4_30_0 -1 x_4_30_1 +0 x_4_30_2 -1 x_4_30_3 +1 x_4_15_0_sb -1 x_4_15_1_sb -1 x_4_15_2_sb -1 x_4_15_3_sb +0 p0_4_15 +0 p1_4_15 >= -4
+1 x_4_30_0 +0 x_4_30_1 +0 x_4_30_2 +1 x_4_30_3 +0 x_4_15_0_sb -1 x_4_15_1_sb -1 x_4_15_2_sb +1 x_4_15_3_sb +0 p0_4_15 -1 p1_4_15 >= -2
+0 x_4_30_0 +0 x_4_30_1 -1 x_4_30_2 +1 x_4_30_3 -1 x_4_15_0_sb +1 x_4_15_1_sb +0 x_4_15_2_sb -1 x_4_15_3_sb +0 p0_4_15 -1 p1_4_15 >= -3
+0 x_4_30_0 +1 x_4_30_1 +0 x_4_30_2 +1 x_4_30_3 -1 x_4_15_0_sb -1 x_4_15_1_sb +0 x_4_15_2_sb +1 x_4_15_3_sb +0 p0_4_15 -1 p1_4_15 >= -2
-1 x_4_30_0 +1 x_4_30_1 +0 x_4_30_2 -1 x_4_30_3 +0 x_4_15_0_sb +0 x_4_15_1_sb -1 x_4_15_2_sb +1 x_4_15_3_sb +0 p0_4_15 -1 p1_4_15 >= -3
-1 x_4_30_0 +0 x_4_30_1 +0 x_4_30_2 +0 x_4_30_3 -1 x_4_15_0_sb +1 x_4_15_1_sb +0 x_4_15_2_sb -1 x_4_15_3_sb +0 p0_4_15 -1 p1_4_15 >= -3
+0 x_4_30_0 +0 x_4_30_1 -1 x_4_30_2 +0 x_4_30_3 +1 x_4_15_0_sb +1 x_4_15_1_sb +0 x_4_15_2_sb +1 x_4_15_3_sb +0 p0_4_15 +0 p1_4_15 >= 0
-1 x_4_1_0 -1 x_4_0_0_sb -1 x_5_6_0 >= -2
+1 x_4_1_0 +1 x_4_0_0_sb -1 x_5_6_0 >= 0
+1 x_4_1_0 -1 x_4_0_0_sb +1 x_5_6_0 >= 0
-1 x_4_1_0 +1 x_4_0_0_sb +1 x_5_6_0 >= 0
-1 x_4_1_1 -1 x_4_0_1_sb -1 x_5_6_1 >= -2
+1 x_4_1_1 +1 x_4_0_1_sb -1 x_5_6_1 >= 0
+1 x_4_1_1 -1 x_4_0_1_sb +1 x_5_6_1 >= 0
-1 x_4_1_1 +1 x_4_0_1_sb +1 x_5_6_1 >= 0
-1 x_4_1_2 -1 x_4_0_2_sb -1 x_5_6_2 >= -2
+1 x_4_1_2 +1 x_4_0_2_sb -1 x_5_6_2 >= 0
+1 x_4_1_2 -1 x_4_0_2_sb +1 x_5_6_2 >= 0
-1 x_4_1_2 +1 x_4_0_2_sb +1 x_5_6_2 >= 0
-1 x_4_1_3 -1 x_4_0_3_sb -1 x_5_6_3 >= -2
+1 x_4_1_3 +1 x_4_0_3_sb -1 x_5_6_3 >= 0
+1 x_4_1_3 -1 x_4_0_3_sb +1 x_5_6_3 >= 0
-1 x_4_1_3 +1 x_4_0_3_sb +1 x_5_6_3 >= 0
-1 x_4_3_0 -1 x_4_1_0_sb -1 x_5_14_0 >= -2
+1 x_4_3_0 +1 x_4_1_0_sb -1 x_5_14_0 >= 0
+1 x_4_3_0 -1 x_4_1_0_sb +1 x_5_14_0 >= 0
-1 x_4_3_0 +1 x_4_1_0_sb +1 x_5_14_0 >= 0
-1 x_4_3_1 -1 x_4_1_1_sb -1 x_5_14_1 >= -2
+1 x_4_3_1 +1 x_4_1_1_sb -1 x_5_14_1 >= 0
+1 x_4_3_1 -1 x_4_1_1_sb +1 x_5_14_1 >= 0
-1 x_4_3_1 +1 x_4_1_1_sb +1 x_5_14_1 >= 0
-1 x_4_3_2 -1 x_4_1_2_sb -1 x_5_14_2 >= -2
+1 x_4_3_2 +1 x_4_1_2_sb -1 x_5_14_2 >= 0
+1 x_4_3_2 -1 x_4_1_2_sb +1 x_5_14_2 >= 0
-1 x_4_3_2 +1 x_4_1_2_sb +1 x_5_14_2 >= 0
-1 x_4_3_3 -1 x_4_1_3_sb -1 x_5_14_3 >= -2
+1 x_4_3_3 +1 x_4_1_3_sb -1 x_5_14_3 >= 0
+1 x_4_3_3 -1 x_4_1_3_sb +1 x_5_14_3 >= 0
-1 x_4_3_3 +1 x_4_1_3_sb +1 x_5_14_3 >= 0
-1 x_4_5_0 -1 x_4_2_0_sb -1 x_5_12_0 >= -2
+1 x_4_5_0 +1 x_4_2_0_sb -1 x_5_12_0 >= 0
+1 x_4_5_0 -1 x_4_2_0_sb +1 x_5_12_0 >= 0
-1 x_4_5_0 +1 x_4_2_0_sb +1 x_5_12_0 >= 0
-1 x_4_5_1 -1 x_4_2_1_sb -1 x_5_12_1 >= -2
+1 x_4_5_1 +1 x_4_2_1_sb -1 x_5_12_1 >= 0
+1 x_4_5_1 -1 x_4_2_1_sb +1 x_5_12_1 >= 0
-1 x_4_5_1 +1 x_4_2_1_sb +1 x_5_12_1 >= 0
-1 x_4_5_2 -1 x_4_2_2_sb -1 x_5_12_2 >= -2
+1 x_4_5_2 +1 x_4_2_2_sb -1 x_5_12_2 >= 0
+1 x_4_5_2 -1 x_4_2_2_sb +1 x_5_12_2 >= 0
-1 x_4_5_2 +1 x_4_2_2_sb +1 x_5_12_2 >= 0
-1 x_4_5_3 -1 x_4_2_3_sb -1 x_5_12_3 >= -2
+1 x_4_5_3 +1 x_4_2_3_sb -1 x_5_12_3 >= 0
+1 x_4_5_3 -1 x_4_2_3_sb +1 x_5_12_3 >= 0
-1 x_4_5_3 +1 x_4_2_3_sb +1 x_5_12_3 >= 0
-1 x_4_7_0 -1 x_4_3_0_sb -1 x_5_8_0 >= -2
+1 x_4_7_0 +1 x_4_3_0_sb -1 x_5_8_0 >= 0
+1 x_4_7_0 -1 x_4_3_0_sb +1 x_5_8_0 >= 0
-1 x_4_7_0 +1 x_4_3_0_sb +1 x_5_8_0 >= 0
-1 x_4_7_1 -1 x_4_3_1_sb -1 x_5_8_1 >= -2
+1 x_4_7_1 +1 x_4_3_1_sb -1 x_5_8_1 >= 0
+1 x_4_7_1 -1 x_4_3_1_sb +1 x_5_8_1 >= 0
-1 x_4_7_1 +1 x_4_3_1_sb +1 x_5_8_1 >= 0
-1 x_4_7_2 -1 x_4_3_2_sb -1 x_5_8_2 >= -2
+1 x_4_7_2 +1 x_4_3_2_sb -1 x_5_8_2 >= 0
+1 x_4_7_2 -1 x_4_3_2_sb +1 x_5_8_2 >= 0
-1 x_4_7_2 +1 x_4_3_2_sb +1 x_5_8_2 >= 0
-1 x_4_7_3 -1 x_4_3_3_sb -1 x_5_8_3 >= -2
+1 x_4_7_3 +1 x_4_3_3_sb -1 x_5_8_3 >= 0
+1 x_4_7_3 -1 x_4_3_3_sb +1 x_5_8_3 >= 0
-1 x_4_7_3 +1 x_4_3_3_sb +1 x_5_8_3 >= 0
-1 x_4_9_0 -1 x_4_4_0_sb -1 x_5_2_0 >= -2
+1 x_4_9_0 +1 x_4_4_0_sb -1 x_5_2_0 >= 0
+1 x_4_9_0 -1 x_4_4_0_sb +1 x_5_2_0 >= 0
-1 x_4_9_0 +1 x_4_4_0_sb +1 x_5_2_0 >= 0
-1 x_4_9_1 -1 x_4_4_1_sb -1 x_5_2_1 >= -2
+1 x_4_9_1 +1 x_4_4_1_sb -1 x_5_2_1 >= 0
+1 x_4_9_1 -1 x_4_4_1_sb +1 x_5_2_1 >= 0
-1 x_4_9_1 +1 x_4_4_1_sb +1 x_5_2_1 >= 0
-1 x_4_9_2 -1 x_4_4_2_sb -1 x_5_2_2 >= -2
+1 x_4_9_2 +1 x_4_4_2_sb -1 x_5_2_2 >= 0
+1 x_4_9_2 -1 x_4_4_2_sb +1 x_5_2_2 >= 0
-1 x_4_9_2 +1 x_4_4_2_sb +1 x_5_2_2 >= 0
-1 x_4_9_3 -1 x_4_4_3_sb -1 x_5_2_3 >= -2
+1 x_4_9_3 +1 x_4_4_3_sb -1 x_5_2_3 >= 0
+1 x_4_9_3 -1 x_4_4_3_sb +1 x_5_2_3 >= 0
-1 x_4_9_3 +1 x_4_4_3_sb +1 x_5_2_3 >= 0
-1 x_4_11_0 -1 x_4_5_0_sb -1 x_5_0_0 >= -2
+1 x_4_11_0 +1 x_4_5_0_sb -1 x_5_0_0 >= 0
+1 x_4_11_0 -1 x_4_5_0_sb +1 x_5_0_0 >= 0
-1 x_4_11_0 +1 x_4_5_0_sb +1 x_5_0_0 >= 0
-1 x_4_11_1 -1 x_4_5_1_sb -1 x_5_0_1 >= -2
+1 x_4_11_1 +1 x_4_5_1_sb -1 x_5_0_1 >= 0
+1 x_4_11_1 -1 x_4_5_1_sb +1 x_5_0_1 >= 0
-1 x_4_11_1 +1 x_4_5_1_sb +1 x_5_0_1 >= 0
-1 x_4_11_2 -1 x_4_5_2_sb -1 x_5_0_2 >= -2
+1 x_4_11_2 +1 x_4_5_2_sb -1 x_5_0_2 >= 0
+1 x_4_11_2 -1 x_4_5_2_sb +1 x_5_0_2 >= 0
-1 x_4_11_2 +1 x_4_5_2_sb +1 x_5_0_2 >= 0
-1 x_4_11_3 -1 x_4_5_3_sb -1 x_5_0_3 >= -2
+1 x_4_11_3 +1 x_4_5_3_sb -1 x_5_0_3 >= 0
+1 x_4_11_3 -1 x_4_5_3_sb +1 x_5_0_3 >= 0
-1 x_4_11_3 +1 x_4_5_3_sb +1 x_5_0_3 >= 0
-1 x_4_13_0 -1 x_4_6_0_sb -1 x_5_4_0 >= -2
+1 x_4_13_0 +1 x_4_6_0_sb -1 x_5_4_0 >= 0
+1 x_4_13_0 -1 x_4_6_0_sb +1 x_5_4_0 >= 0
-1 x_4_13_0 +1 x_4_6_0_sb +1 x_5_4_0 >= 0
-1 x_4_13_1 -1 x_4_6_1_sb -1 x_5_4_1 >= -2
+1 x_4_13_1 +1 x_4_6_1_sb -1 x_5_4_1 >= 0
+1 x_4_13_1 -1 x_4_6_1_sb +1 x_5_4_1 >= 0
-1 x_4_13_1 +1 x_4_6_1_sb +1 x_5_4_1 >= 0
-1 x_4_13_2 -1 x_4_6_2_sb -1 x_5_4_2 >= -2
+1 x_4_13_2 +1 x_4_6_2_sb -1 x_5_4_2 >= 0
+1 x_4_13_2 -1 x_4_6_2_sb +1 x_5_4_2 >= 0
-1 x_4_13_2 +1 x_4_6_2_sb +1 x_5_4_2 >= 0
-1 x_4_13_3 -1 x_4_6_3_sb -1 x_5_4_3 >= -2
+1 x_4_13_3 +1 x_4_6_3_sb -1 x_5_4_3 >= 0
+1 x_4_13_3 -1 x_4_6_3_sb +1 x_5_4_3 >= 0
-1 x_4_13_3 +1 x_4_6_3_sb +1 x_5_4_3 >= 0
-1 x_4_15_0 -1 x_4_7_0_sb -1 x_5_10_0 >= -2
+1 x_4_15_0 +1 x_4_7_0_sb -1 x_5_10_0 >= 0
+1 x_4_15_0 -1 x_4_7_0_sb +1 x_5_10_0 >= 0
-1 x_4_15_0 +1 x_4_7_0_sb +1 x_5_10_0 >= 0
-1 x_4_15_1 -1 x_4_7_1_sb -1 x_5_10_1 >= -2
+1 x_4_15_1 +1 x_4_7_1_sb -1 x_5_10_1 >= 0
+1 x_4_15_1 -1 x_4_7_1_sb +1 x_5_10_1 >= 0
-1 x_4_15_1 +1 x_4_7_1_sb +1 x_5_10_1 >= 0
-1 x_4_15_2 -1 x_4_7_2_sb -1 x_5_10_2 >= -2
+1 x_4_15_2 +1 x_4_7_2_sb -1 x_5_10_2 >= 0
+1 x_4_15_2 -1 x_4_7_2_sb +1 x_5_10_2 >= 0
-1 x_4_15_2 +1 x_4_7_2_sb +1 x_5_10_2 >= 0
-1 x_4_15_3 -1 x_4_7_3_sb -1 x_5_10_3 >= -2
+1 x_4_15_3 +1 x_4_7_3_sb -1 x_5_10_3 >= 0
+1 x_4_15_3 -1 x_4_7_3_sb +1 x_5_10_3 >= 0
-1 x_4_15_3 +1 x_4_7_3_sb +1 x_5_10_3 >= 0
-1 x_4_17_0 -1 x_4_8_0_sb -1 x_5_22_0 >= -2
+1 x_4_17_0 +1 x_4_8_0_sb -1 x_5_22_0 >= 0
+1 x_4_17_0 -1 x_4_8_0_sb +1 x_5_22_0 >= 0
-1 x_4_17_0 +1 x_4_8_0_sb +1 x_5_22_0 >= 0
-1 x_4_17_1 -1 x_4_8_1_sb -1 x_5_22_1 >= -2
+1 x_4_17_1 +1 x_4_8_1_sb -1 x_5_22_1 >= 0
+1 x_4_17_1 -1 x_4_8_1_sb +1 x_5_22_1 >= 0
-1 x_4_17_1 +1 x_4_8_1_sb +1 x_5_22_1 >= 0
-1 x_4_17_2 -1 x_4_8_2_sb -1 x_5_22_2 >= -2
+1 x_4_17_2 +1 x_4_8_2_sb -1 x_5_22_2 >= 0
+1 x_4_17_2 -1 x_4_8_2_sb +1 x_5_22_2 >= 0
-1 x_4_17_2 +1 x_4_8_2_sb +1 x_5_22_2 >= 0
-1 x_4_17_3 -1 x_4_8_3_sb -1 x_5_22_3 >= -2
+1 x_4_17_3 +1 x_4_8_3_sb -1 x_5_22_3 >= 0
+1 x_4_17_3 -1 x_4_8_3_sb +1 x_5_22_3 >= 0
-1 x_4_17_3 +1 x_4_8_3_sb +1 x_5_22_3 >= 0
-1 x_4_19_0 -1 x_4_9_0_sb -1 x_5_30_0 >= -2
+1 x_4_19_0 +1 x_4_9_0_sb -1 x_5_30_0 >= 0
+1 x_4_19_0 -1 x_4_9_0_sb +1 x_5_30_0 >= 0
-1 x_4_19_0 +1 x_4_9_0_sb +1 x_5_30_0 >= 0
-1 x_4_19_1 -1 x_4_9_1_sb -1 x_5_30_1 >= -2
+1 x_4_19_1 +1 x_4_9_1_sb -1 x_5_30_1 >= 0
+1 x_4_19_1 -1 x_4_9_1_sb +1 x_5_30_1 >= 0
-1 x_4_19_1 +1 x_4_9_1_sb +1 x_5_30_1 >= 0
-1 x_4_19_2 -1 x_4_9_2_sb -1 x_5_30_2 >= -2
+1 x_4_19_2 +1 x_4_9_2_sb -1 x_5_30_2 >= 0
+1 x_4_19_2 -1 x_4_9_2_sb +1 x_5_30_2 >= 0
-1 x_4_19_2 +1 x_4_9_2_sb +1 x_5_30_2 >= 0
-1 x_4_19_3 -1 x_4_9_3_sb -1 x_5_30_3 >= -2
+1 x_4_19_3 +1 x_4_9_3_sb -1 x_5_30_3 >= 0
+1 x_4_19_3 -1 x_4_9_3_sb +1 x_5_30_3 >= 0
-1 x_4_19_3 +1 x_4_9_3_sb +1 x_5_30_3 >= 0
-1 x_4_21_0 -1 x_4_10_0_sb -1 x_5_28_0 >= -2
+1 x_4_21_0 +1 x_4_10_0_sb -1 x_5_28_0 >= 0
+1 x_4_21_0 -1 x_4_10_0_sb +1 x_5_28_0 >= 0
-1 x_4_21_0 +1 x_4_10_0_sb +1 x_5_28_0 >= 0
-1 x_4_21_1 -1 x_4_10_1_sb -1 x_5_28_1 >= -2
+1 x_4_21_1 +1 x_4_10_1_sb -1 x_5_28_1 >= 0
+1 x_4_21_1 -1 x_4_10_1_sb +1 x_5_28_1 >= 0
-1 x_4_21_1 +1 x_4_10_1_sb +1 x_5_28_1 >= 0
-1 x_4_21_2 -1 x_4_10_2_sb -1 x_5_28_2 >= -2
+1 x_4_21_2 +1 x_4_10_2_sb -1 x_5_28_2 >= 0
+1 x_4_21_2 -1 x_4_10_2_sb +1 x_5_28_2 >= 0
-1 x_4_21_2 +1 x_4_10_2_sb +1 x_5_28_2 >= 0
-1 x_4_21_3 -1 x_4_10_3_sb -1 x_5_28_3 >= -2
+1 x_4_21_3 +1 x_4_10_3_sb -1 x_5_28_3 >= 0
+1 x_4_21_3 -1 x_4_10_3_sb +1 x_5_28_3 >= 0
-1 x_4_21_3 +1 x_4_10_3_sb +1 x_5_28_3 >= 0
-1 x_4_23_0 -1 x_4_11_0_sb -1 x_5_24_0 >= -2
+1 x_4_23_0 +1 x_4_11_0_sb -1 x_5_24_0 >= 0
+1 x_4_23_0 -1 x_4_11_0_sb +1 x_5_24_0 >= 0
-1 x_4_23_0 +1 x_4_11_0_sb +1 x_5_24_0 >= 0
-1 x_4_23_1 -1 x_4_11_1_sb -1 x_5_24_1 >= -2
+1 x_4_23_1 +1 x_4_11_1_sb -1 x_5_24_1 >= 0
+1 x_4_23_1 -1 x_4_11_1_sb +1 x_5_24_1 >= 0
-1 x_4_23_1 +1 x_4_11_1_sb +1 x_5_24_1 >= 0
-1 x_4_23_2 -1 x_4_11_2_sb -1 x_5_24_2 >= -2
+1 x_4_23_2 +1 x_4_11_2_sb -1 x_5_24_2 >= 0
+1 x_4_23_2 -1 x_4_11_2_sb +1 x_5_24_2 >= 0
-1 x_4_23_2 +1 x_4_11_2_sb +1 x_5_24_2 >= 0
-1 x_4_23_3 -1 x_4_11_3_sb -1 x_5_24_3 >= -2
+1 x_4_23_3 +1 x_4_11_3_sb -1 x_5_24_3 >= 0
+1 x_4_23_3 -1 x_4_11_3_sb +1 x_5_24_3 >= 0
-1 x_4_23_3 +1 x_4_11_3_sb +1 x_5_24_3 >= 0
-1 x_4_25_0 -1 x_4_12_0_sb -1 x_5_18_0 >= -2
+1 x_4_25_0 +1 x_4_12_0_sb -1 x_5_18_0 >= 0
+1 x_4_25_0 -1 x_4_12_0_sb +1 x_5_18_0 >= 0
-1 x_4_25_0 +1 x_4_12_0_sb +1 x_5_18_0 >= 0
-1 x_4_25_1 -1 x_4_12_1_sb -1 x_5_18_1 >= -2
+1 x_4_25_1 +1 x_4_12_1_sb -1 x_5_18_1 >= 0
+1 x_4_25_1 -1 x_4_12_1_sb +1 x_5_18_1 >= 0
-1 x_4_25_1 +1 x_4_12_1_sb +1 x_5_18_1 >= 0
-1 x_4_25_2 -1 x_4_12_2_sb -1 x_5_18_2 >= -2
+1 x_4_25_2 +1 x_4_12_2_sb -1 x_5_18_2 >= 0
+1 x_4_25_2 -1 x_4_12_2_sb +1 x_5_18_2 >= 0
-1 x_4_25_2 +1 x_4_12_2_sb +1 x_5_18_2 >= 0
-1 x_4_25_3 -1 x_4_12_3_sb -1 x_5_18_3 >= -2
+1 x_4_25_3 +1 x_4_12_3_sb -1 x_5_18_3 >= 0
+1 x_4_25_3 -1 x_4_12_3_sb +1 x_5_18_3 >= 0
-1 x_4_25_3 +1 x_4_12_3_sb +1 x_5_18_3 >= 0
-1 x_4_27_0 -1 x_4_13_0_sb -1 x_5_16_0 >= -2
+1 x_4_27_0 +1 x_4_13_0_sb -1 x_5_16_0 >= 0
+1 x_4_27_0 -1 x_4_13_0_sb +1 x_5_16_0 >= 0
-1 x_4_27_0 +1 x_4_13_0_sb +1 x_5_16_0 >= 0
-1 x_4_27_1 -1 x_4_13_1_sb -1 x_5_16_1 >= -2
+1 x_4_27_1 +1 x_4_13_1_sb -1 x_5_16_1 >= 0
+1 x_4_27_1 -1 x_4_13_1_sb +1 x_5_16_1 >= 0
-1 x_4_27_1 +1 x_4_13_1_sb +1 x_5_16_1 >= 0
-1 x_4_27_2 -1 x_4_13_2_sb -1 x_5_16_2 >= -2
+1 x_4_27_2 +1 x_4_13_2_sb -1 x_5_16_2 >= 0
+1 x_4_27_2 -1 x_4_13_2_sb +1 x_5_16_2 >= 0
-1 x_4_27_2 +1 x_4_13_2_sb +1 x_5_16_2 >= 0
-1 x_4_27_3 -1 x_4_13_3_sb -1 x_5_16_3 >= -2
+1 x_4_27_3 +1 x_4_13_3_sb -1 x_5_16_3 >= 0
+1 x_4_27_3 -1 x_4_13_3_sb +1 x_5_16_3 >= 0
-1 x_4_27_3 +1 x_4_13_3_sb +1 x_5_16_3 >= 0
-1 x_4_29_0 -1 x_4_14_0_sb -1 x_5_20_0 >= -2
+1 x_4_29_0 +1 x_4_14_0_sb -1 x_5_20_0 >= 0
+1 x_4_29_0 -1 x_4_14_0_sb +1 x_5_20_0 >= 0
-1 x_4_29_0 +1 x_4_14_0_sb +1 x_5_20_0 >= 0
-1 x_4_29_1 -1 x_4_14_1_sb -1 x_5_20_1 >= -2
+1 x_4_29_1 +1 x_4_14_1_sb -1 x_5_20_1 >= 0
+1 x_4_29_1 -1 x_4_14_1_sb +1 x_5_20_1 >= 0
-1 x_4_29_1 +1 x_4_14_1_sb +1 x_5_20_1 >= 0
-1 x_4_29_2 -1 x_4_14_2_sb -1 x_5_20_2 >= -2
+1 x_4_29_2 +1 x_4_14_2_sb -1 x_5_20_2 >= 0
+1 x_4_29_2 -1 x_4_14_2_sb +1 x_5_20_2 >= 0
-1 x_4_29_2 +1 x_4_14_2_sb +1 x_5_20_2 >= 0
-1 x_4_29_3 -1 x_4_14_3_sb -1 x_5_20_3 >= -2
+1 x_4_29_3 +1 x_4_14_3_sb -1 x_5_20_3 >= 0
+1 x_4_29_3 -1 x_4_14_3_sb +1 x_5_20_3 >= 0
-1 x_4_29_3 +1 x_4_14_3_sb +1 x_5_20_3 >= 0
-1 x_4_31_0 -1 x_4_15_0_sb -1 x_5_26_0 >= -2
+1 x_4_31_0 +1 x_4_15_0_sb -1 x_5_26_0 >= 0
+1 x_4_31_0 -1 x_4_15_0_sb +1 x_5_26_0 >= 0
-1 x_4_31_0 +1 x_4_15_0_sb +1 x_5_26_0 >= 0
-1 x_4_31_1 -1 x_4_15_1_sb -1 x_5_26_1 >= -2
+1 x_4_31_1 +1 x_4_15_1_sb -1 x_5_26_1 >= 0
+1 x_4_31_1 -1 x_4_15_1_sb +1 x_5_26_1 >= 0
-1 x_4_31_1 +1 x_4_15_1_sb +1 x_5_26_1 >= 0
-1 x_4_31_2 -1 x_4_15_2_sb -1 x_5_26_2 >= -2
+1 x_4_31_2 +1 x_4_15_2_sb -1 x_5_26_2 >= 0
+1 x_4_31_2 -1 x_4_15_2_sb +1 x_5_26_2 >= 0
-1 x_4_31_2 +1 x_4_15_2_sb +1 x_5_26_2 >= 0
-1 x_4_31_3 -1 x_4_15_3_sb -1 x_5_26_3 >= -2
+1 x_4_31_3 +1 x_4_15_3_sb -1 x_5_26_3 >= 0
+1 x_4_31_3 -1 x_4_15_3_sb +1 x_5_26_3 >= 0
-1 x_4_31_3 +1 x_4_15_3_sb +1 x_5_26_3 >= 0
x_5_31_0 - x_4_0_0 = 0
x_5_31_1 - x_4_0_1 = 0
x_5_31_2 - x_4_0_2 = 0
x_5_31_3 - x_4_0_3 = 0
x_5_29_0 - x_4_2_0 = 0
x_5_29_1 - x_4_2_1 = 0
x_5_29_2 - x_4_2_2 = 0
x_5_29_3 - x_4_2_3 = 0
x_5_1_0 - x_4_4_0 = 0
x_5_1_1 - x_4_4_1 = 0
x_5_1_2 - x_4_4_2 = 0
x_5_1_3 - x_4_4_3 = 0
x_5_21_0 - x_4_6_0 = 0
x_5_21_1 - x_4_6_1 = 0
x_5_21_2 - x_4_6_2 = 0
x_5_21_3 - x_4_6_3 = 0
x_5_27_0 - x_4_8_0 = 0
x_5_27_1 - x_4_8_1 = 0
x_5_27_2 - x_4_8_2 = 0
x_5_27_3 - x_4_8_3 = 0
x_5_3_0 - x_4_10_0 = 0
x_5_3_1 - x_4_10_1 = 0
x_5_3_2 - x_4_10_2 = 0
x_5_3_3 - x_4_10_3 = 0
x_5_25_0 - x_4_12_0 = 0
x_5_25_1 - x_4_12_1 = 0
x_5_25_2 - x_4_12_2 = 0
x_5_25_3 - x_4_12_3 = 0
x_5_23_0 - x_4_14_0 = 0
x_5_23_1 - x_4_14_1 = 0
x_5_23_2 - x_4_14_2 = 0
x_5_23_3 - x_4_14_3 = 0
x_5_15_0 - x_4_16_0 = 0
x_5_15_1 - x_4_16_1 = 0
x_5_15_2 - x_4_16_2 = 0
x_5_15_3 - x_4_16_3 = 0
x_5_13_0 - x_4_18_0 = 0
x_5_13_1 - x_4_18_1 = 0
x_5_13_2 - x_4_18_2 = 0
x_5_13_3 - x_4_18_3 = 0
x_5_17_0 - x_4_20_0 = 0
x_5_17_1 - x_4_20_1 = 0
x_5_17_2 - x_4_20_2 = 0
x_5_17_3 - x_4_20_3 = 0
x_5_5_0 - x_4_22_0 = 0
x_5_5_1 - x_4_22_1 = 0
x_5_5_2 - x_4_22_2 = 0
x_5_5_3 - x_4_22_3 = 0
x_5_11_0 - x_4_24_0 = 0
x_5_11_1 - x_4_24_1 = 0
x_5_11_2 - x_4_24_2 = 0
x_5_11_3 - x_4_24_3 = 0
x_5_19_0 - x_4_26_0 = 0
x_5_19_1 - x_4_26_1 = 0
x_5_19_2 - x_4_26_2 = 0
x_5_19_3 - x_4_26_3 = 0
x_5_9_0 - x_4_28_0 = 0
x_5_9_1 - x_4_28_1 = 0
x_5_9_2 - x_4_28_2 = 0
x_5_9_3 - x_4_28_3 = 0
x_5_7_0 - x_4_30_0 = 0
x_5_7_1 - x_4_30_1 = 0
x_5_7_2 - x_4_30_2 = 0
x_5_7_3 - x_4_30_3 = 0
+0 x_5_0_0 +0 x_5_0_1 +0 x_5_0_2 +0 x_5_0_3 +0 x_5_0_0_sb +0 x_5_0_1_sb +0 x_5_0_2_sb +0 x_5_0_3_sb -1 p0_5_0 -1 p1_5_0 >= -1
+0 x_5_0_0 +0 x_5_0_1 +0 x_5_0_2 +0 x_5_0_3 +0 x_5_0_0_sb +0 x_5_0_1_sb +0 x_5_0_2_sb -1 x_5_0_3_sb +1 p0_5_0 +1 p1_5_0 >= 0
+0 x_5_0_0 +0 x_5_0_1 +0 x_5_0_2 +0 x_5_0_3 +0 x_5_0_0_sb -1 x_5_0_1_sb +0 x_5_0_2_sb +0 x_5_0_3_sb +1 p0_5_0 +1 p1_5_0 >= 0
+0 x_5_0_0 +0 x_5_0_1 +0 x_5_0_2 +0 x_5_0_3 -1 x_5_0_0_sb +0 x_5_0_1_sb +0 x_5_0_2_sb +0 x_5_0_3_sb +1 p0_5_0 +1 p1_5_0 >= 0
+0 x_5_0_0 +0 x_5_0_1 +0 x_5_0_2 +0 x_5_0_3 +1 x_5_0_0_sb +1 x_5_0_1_sb +1 x_5_0_2_sb +1 x_5_0_3_sb +0 p0_5_0 -1 p1_5_0 >= 0
+0 x_5_0_0 +0 x_5_0_1 +0 x_5_0_2 -1 x_5_0_3 +1 x_5_0_0_sb +1 x_5_0_1_sb +0 x_5_0_2_sb +1 x_5_0_3_sb +0 p0_5_0 +1 p1_5_0 >= 0
-1 x_5_0_0 +0 x_5_0_1 -1 x_5_0_2 +0 x_5_0_3 +1 x_5_0_0_sb +0 x_5_0_1_sb +0 x_5_0_2_sb +1 x_5_0_3_sb +0 p0_5_0 -1 p1_5_0 >= -2
+1 x_5_0_0 +0 x_5_0_1 +1 x_5_0_2 +0 x_5_0_3 +1 x_5_0_0_sb +0 x_5_0_1_sb +1 x_5_0_2_sb +0 x_5_0_3_sb +0 p0_5_0 -1 p1_5_0 >= 0
+0 x_5_0_0 +0 x_5_0_1 +0 x_5_0_2 +1 x_5_0_3 +0 x_5_0_0_sb +1 x_5_0_1_sb -1 x_5_0_2_sb -1 x_5_0_3_sb +0 p0_5_0 -1 p1_5_0 >= -2
-1 x_5_0_0 +0 x_5_0_1 +0 x_5_0_2 -1 x_5_0_3 -1 x_5_0_0_sb +0 x_5_0_1_sb +0 x_5_0_2_sb +1 x_5_0_3_sb +0 p0_5_0 -1 p1_5_0 >= -3
+0 x_5_0_0 +0 x_5_0_1 +0 x_5_0_2 +1 x_5_0_3 -1 x_5_0_0_sb -1 x_5_0_1_sb -1 x_5_0_2_sb +0 x_5_0_3_sb +0 p0_5_0 -1 p1_5_0 >= -3
+1 x_5_0_0 +1 x_5_0_1 +0 x_5_0_2 +1 x_5_0_3 +0 x_5_0_0_sb +0 x_5_0_1_sb +0 x_5_0_2_sb +0 x_5_0_3_sb -1 p0_5_0 +0 p1_5_0 >= 0
+0 x_5_0_0 +0 x_5_0_1 +1 x_5_0_2 +1 x_5_0_3 +0 x_5_0_0_sb -1 x_5_0_1_sb +1 x_5_0_2_sb +0 x_5_0_3_sb +0 p0_5_0 -1 p1_5_0 >= -1
+0 x_5_0_0 +1 x_5_0_1 +0 x_5_0_2 -1 x_5_0_3 -1 x_5_0_0_sb +0 x_5_0_1_sb -1 x_5_0_2_sb +0 x_5_0_3_sb +0 p0_5_0 -1 p1_5_0 >= -3
+0 x_5_0_0 +1 x_5_0_1 +1 x_5_0_2 +0 x_5_0_3 +0 x_5_0_0_sb +0 x_5_0_1_sb +1 x_5_0_2_sb -1 x_5_0_3_sb +0 p0_5_0 -1 p1_5_0 >= -1
-1 x_5_0_0 +0 x_5_0_1 -1 x_5_0_2 +0 x_5_0_3 -1 x_5_0_0_sb +0 x_5_0_1_sb +1 x_5_0_2_sb +0 x_5_0_3_sb +0 p0_5_0 -1 p1_5_0 >= -3
+0 x_5_0_0 -1 x_5_0_1 -1 x_5_0_2 +0 x_5_0_3 +0 x_5_0_0_sb +1 x_5_0_1_sb +0 x_5_0_2_sb +1 x_5_0_3_sb +0 p0_5_0 -1 p1_5_0 >= -2
+0 x_5_0_0 -1 x_5_0_1 +0 x_5_0_2 +0 x_5_0_3 +1 x_5_0_0_sb +1 x_5_0_1_sb +0 x_5_0_2_sb +1 x_5_0_3_sb +0 p0_5_0 +1 p1_5_0 >= 0
-1 x_5_0_0 -1 x_5_0_1 +0 x_5_0_2 +1 x_5_0_3 +0 x_5_0_0_sb +1 x_5_0_1_sb +0 x_5_0_2_sb +1 x_5_0_3_sb +0 p0_5_0 -1 p1_5_0 >= -2
+0 x_5_0_0 -1 x_5_0_1 +0 x_5_0_2 +0 x_5_0_3 +1 x_5_0_0_sb +0 x_5_0_1_sb +1 x_5_0_2_sb +1 x_5_0_3_sb +0 p0_5_0 -1 p1_5_0 >= -1
-1 x_5_0_0 +0 x_5_0_1 -1 x_5_0_2 +0 x_5_0_3 +1 x_5_0_0_sb +1 x_5_0_1_sb +0 x_5_0_2_sb +0 x_5_0_3_sb +0 p0_5_0 -1 p1_5_0 >= -2
+0 x_5_0_0 +1 x_5_0_1 -1 x_5_0_2 -1 x_5_0_3 +0 x_5_0_0_sb +0 x_5_0_1_sb +0 x_5_0_2_sb +1 x_5_0_3_sb +0 p0_5_0 -1 p1_5_0 >= -2
-1 x_5_0_0 -1 x_5_0_1 +0 x_5_0_2 -1 x_5_0_3 +0 x_5_0_0_sb +1 x_5_0_1_sb +0 x_5_0_2_sb -1 x_5_0_3_sb +0 p0_5_0 -1 p1_5_0 >= -4
-1 x_5_0_0 +1 x_5_0_1 +0 x_5_0_2 +1 x_5_0_3 +0 x_5_0_0_sb +1 x_5_0_1_sb +0 x_5_0_2_sb +1 x_5_0_3_sb +0 p0_5_0 +1 p1_5_0 >= 0
+0 x_5_0_0 +0 x_5_0_1 +0 x_5_0_2 +0 x_5_0_3 +1 x_5_0_0_sb -1 x_5_0_1_sb +0 x_5_0_2_sb -1 x_5_0_3_sb +0 p0_5_0 +1 p1_5_0 >= -1
+1 x_5_0_0 +0 x_5_0_1 +1 x_5_0_2 +0 x_5_0_3 +1 x_5_0_0_sb -1 x_5_0_1_sb +0 x_5_0_2_sb +0 x_5_0_3_sb +0 p0_5_0 -1 p1_5_0 >= -1
+0 x_5_0_0 +1 x_5_0_1 +0 x_5_0_2 +1 x_5_0_3 +0 x_5_0_0_sb -1 x_5_0_1_sb -1 x_5_0_2_sb +0 x_5_0_3_sb +0 p0_5_0 -1 p1_5_0 >= -2
+1 x_5_0_0 -1 x_5_0_1 +0 x_5_0_2 -1 x_5_0_3 +0 x_5_0_0_sb +0 x_5_0_1_sb +1 x_5_0_2_sb +0 x_5_0_3_sb +0 p0_5_0 +0 p1_5_0 >= -1
+1 x_5_0_0 -1 x_5_0_1 -1 x_5_0_2 +0 x_5_0_3 +0 x_5_0_0_sb +0 x_5_0_1_sb +1 x_5_0_2_sb -1 x_5_0_3_sb +0 p0_5_0 -1 p1_5_0 >= -3
+1 x_5_0_0 -1 x_5_0_1 +0 x_5_0_2 -1 x_5_0_3 +0 x_5_0_0_sb +0 x_5_0_1_sb +0 x_5_0_2_sb +0 x_5_0_3_sb +0 p0_5_0 +1 p1_5_0 >= -1
+1 x_5_0_0 +0 x_5_0_1 +0 x_5_0_2 +0 x_5_0_3 -1 x_5_0_0_sb +1 x_5_0_1_sb +0 x_5_0_2_sb -1 x_5_0_3_sb +0 p0_5_0 +1 p1_5_0 >= -1
+1 x_5_0_0 +0 x_5_0_1 +0 x_5_0_2 +0 x_5_0_3 -1 x_5_0_0_sb -1 x_5_0_1_sb +0 x_5_0_2_sb +1 x_5_0_3_sb +0 p0_5_0 +1 p1_5_0 >= -1
-1 x_5_0_0 -1 x_5_0_1 +0 x_5_0_2 +1 x_5_0_3 +1 x_5_0_0_sb +0 x_5_0_1_sb +0 x_5_0_2_sb +0 x_5_0_3_sb +0 p0_5_0 +1 p1_5_0 >= -1
-1 x_5_0_0 +1 x_5_0_1 +0 x_5_0_2 -1 x_5_0_3 +1 x_5_0_0_sb +0 x_5_0_1_sb +0 x_5_0_2_sb +0 x_5_0_3_sb +0 p0_5_0 +1 p1_5_0 >= -1
+0 x_5_0_0 -1 x_5_0_1 +0 x_5_0_2 -1 x_5_0_3 +0 x_5_0_0_sb -1 x_5_0_1_sb +0 x_5_0_2_sb -1 x_5_0_3_sb +0 p0_5_0 +1 p1_5_0 >= -3
+1 x_5_0_0 +1 x_5_0_1 +0 x_5_0_2 +1 x_5_0_3 +0 x_5_0_0_sb +0 x_5_0_1_sb -1 x_5_0_2_sb +0 x_5_0_3_sb +0 p0_5_0 +0 p1_5_0 >= 0
-1 x_5_0_0 +0 x_5_0_1 +1 x_5_0_2 -1 x_5_0_3 +0 x_5_0_0_sb -1 x_5_0_1_sb -1 x_5_0_2_sb +0 x_5_0_3_sb +0 p0_5_0 -1 p1_5_0 >= -4
+1 x_5_0_0 +1 x_5_0_1 +0 x_5_0_2 -1 x_5_0_3 +1 x_5_0_0_sb +1 x_5_0_1_sb +0 x_5_0_2_sb -1 x_5_0_3_sb +0 p0_5_0 -1 p1_5_0 >= -2
+1 x_5_0_0 +0 x_5_0_1 +1 x_5_0_2 +0 x_5_0_3 +0 x_5_0_0_sb +1 x_5_0_1_sb +1 x_5_0_2_sb +1 x_5_0_3_sb +0 p0_5_0 -1 p1_5_0 >= 0
+1 x_5_0_0 +0 x_5_0_1 -1 x_5_0_2 -1 x_5_0_3 -1 x_5_0_0_sb -1 x_5_0_1_sb +0 x_5_0_2_sb -1 x_5_0_3_sb +0 p0_5_0 -1 p1_5_0 >= -5
+0 x_5_0_0 +0 x_5_0_1 +1 x_5_0_2 +1 x_5_0_3 -1 x_5_0_0_sb +0 x_5_0_1_sb -1 x_5_0_2_sb +0 x_5_0_3_sb +0 p0_5_0 -1 p1_5_0 >= -2
+0 x_5_0_0 +0 x_5_0_1 +1 x_5_0_2 +0 x_5_0_3 +1 x_5_0_0_sb -1 x_5_0_1_sb +0 x_5_0_2_sb -1 x_5_0_3_sb +0 p0_5_0 +0 p1_5_0 >= -1
+0 x_5_0_0 -1 x_5_0_1 +0 x_5_0_2 -1 x_5_0_3 +0 x_5_0_0_sb +1 x_5_0_1_sb +0 x_5_0_2_sb +1 x_5_0_3_sb +0 p0_5_0 +1 p1_5_0 >= -1
+0 x_5_0_0 +1 x_5_0_1 +0 x_5_0_2 +1 x_5_0_3 +0 x_5_0_0_sb -1 x_5_0_1_sb +0 x_5_0_2_sb -1 x_5_0_3_sb +0 p0_5_0 +1 p1_5_0 >= -1
+1 x_5_0_0 -1 x_5_0_1 +1 x_5_0_2 -1 x_5_0_3 +1 x_5_0_0_sb +0 x_5_0_1_sb +0 x_5_0_2_sb +0 x_5_0_3_sb +0 p0_5_0 +0 p1_5_0 >= -1
+1 x_5_0_0 +0 x_5_0_1 +0 x_5_0_2 +0 x_5_0_3 +1 x_5_0_0_sb -1 x_5_0_1_sb +1 x_5_0_2_sb -1 x_5_0_3_sb +0 p0_5_0 +0 p1_5_0 >= -1
+0 x_5_0_0 -1 x_5_0_1 +0 x_5_0_2 -1 x_5_0_3 +1 x_5_0_0_sb -1 x_5_0_1_sb -1 x_5_0_2_sb -1 x_5_0_3_sb +0 p0_5_0 +0 p1_5_0 >= -4
+1 x_5_0_0 +0 x_5_0_1 +0 x_5_0_2 +1 x_5_0_3 +0 x_5_0_0_sb -1 x_5_0_1_sb -1 x_5_0_2_sb +1 x_5_0_3_sb +0 p0_5_0 -1 p1_5_0 >= -2
+0 x_5_0_0 +0 x_5_0_1 -1 x_5_0_2 +1 x_5_0_3 -1 x_5_0_0_sb +1 x_5_0_1_sb +0 x_5_0_2_sb -1 x_5_0_3_sb +0 p0_5_0 -1 p1_5_0 >= -3
+0 x_5_0_0 +1 x_5_0_1 +0 x_5_0_2 +1 x_5_0_3 -1 x_5_0_0_sb -1 x_5_0_1_sb +0 x_5_0_2_sb +1 x_5_0_3_sb +0 p0_5_0 -1 p1_5_0 >= -2
-1 x_5_0_0 +1 x_5_0_1 +0 x_5_0_2 -1 x_5_0_3 +0 x_5_0_0_sb +0 x_5_0_1_sb -1 x_5_0_2_sb +1 x_5_0_3_sb +0 p0_5_0 -1 p1_5_0 >= -3
-1 x_5_0_0 +0 x_5_0_1 +0 x_5_0_2 +0 x_5_0_3 -1 x_5_0_0_sb +1 x_5_0_1_sb +0 x_5_0_2_sb -1 x_5_0_3_sb +0 p0_5_0 -1 p1_5_0 >= -3
+0 x_5_0_0 +0 x_5_0_1 -1 x_5_0_2 +0 x_5_0_3 +1 x_5_0_0_sb +1 x_5_0_1_sb +0 x_5_0_2_sb +1 x_5_0_3_sb +0 p0_5_0 +0 p1_5_0 >= 0
+0 x_5_2_0 +0 x_5_2_1 +0 x_5_2_2 +0 x_5_2_3 +0 x_5_1_0_sb +0 x_5_1_1_sb +0 x_5_1_2_sb +0 x_5_1_3_sb -1 p0_5_1 -1 p1_5_1 >= -1
+0 x_5_2_0 +0 x_5_2_1 +0 x_5_2_2 +0 x_5_2_3 +0 x_5_1_0_sb +0 x_5_1_1_sb +0 x_5_1_2_sb -1 x_5_1_3_sb +1 p0_5_1 +1 p1_5_1 >= 0
+0 x_5_2_0 +0 x_5_2_1 +0 x_5_2_2 +0 x_5_2_3 +0 x_5_1_0_sb -1 x_5_1_1_sb +0 x_5_1_2_sb +0 x_5_1_3_sb +1 p0_5_1 +1 p1_5_1 >= 0
+0 x_5_2_0 +0 x_5_2_1 +0 x_5_2_2 +0 x_5_2_3 -1 x_5_1_0_sb +0 x_5_1_1_sb +0 x_5_1_2_sb +0 x_5_1_3_sb +1 p0_5_1 +1 p1_5_1 >= 0
+0 x_5_2_0 +0 x_5_2_1 +0 x_5_2_2 +0 x_5_2_3 +1 x_5_1_0_sb +1 x_5_1_1_sb +1 x_5_1_2_sb +1 x_5_1_3_sb +0 p0_5_1 -1 p1_5_1 >= 0
+0 x_5_2_0 +0 x_5_2_1 +0 x_5_2_2 -1 x_5_2_3 +1 x_5_1_0_sb +1 x_5_1_1_sb +0 x_5_1_2_sb +1 x_5_1_3_sb +0 p0_5_1 +1 p1_5_1 >= 0
-1 x_5_2_0 +0 x_5_2_1 -1 x_5_2_2 +0 x_5_2_3 +1 x_5_1_0_sb +0 x_5_1_1_sb +0 x_5_1_2_sb +1 x_5_1_3_sb +0 p0_5_1 -1 p1_5_1 >= -2
+1 x_5_2_0 +0 x_5_2_1 +1 x_5_2_2 +0 x_5_2_3 +1 x_5_1_0_sb +0 x_5_1_1_sb +1 x_5_1_2_sb +0 x_5_1_3_sb +0 p0_5_1 -1 p1_5_1 >= 0
+0 x_5_2_0 +0 x_5_2_1 +0 x_5_2_2 +1 x_5_2_3 +0 x_5_1_0_sb +1 x_5_1_1_sb -1 x_5_1_2_sb -1 x_5_1_3_sb +0 p0_5_1 -1 p1_5_1 >= -2
-1 x_5_2_0 +0 x_5_2_1 +0 x_5_2_2 -1 x_5_2_3 -1 x_5_1_0_sb +0 x_5_1_1_sb +0 x_5_1_2_sb +1 x_5_1_3_sb +0 p0_5_1 -1 p1_5_1 >= -3
+0 x_5_2_0 +0 x_5_2_1 +0 x_5_2_2 +1 x_5_2_3 -1 x_5_1_0_sb -1 x_5_1_1_sb -1 x_5_1_2_sb +0 x_5_1_3_sb +0 p0_5_1 -1 p1_5_1 >= -3
+1 x_5_2_0 +1 x_5_2_1 +0 x_5_2_2 +1 x_5_2_3 +0 x_5_1_0_sb +0 x_5_1_1_sb +0 x_5_1_2_sb +0 x_5_1_3_sb -1 p0_5_1 +0 p1_5_1 >= 0
+0 x_5_2_0 +0 x_5_2_1 +1 x_5_2_2 +1 x_5_2_3 +0 x_5_1_0_sb -1 x_5_1_1_sb +1 x_5_1_2_sb +0 x_5_1_3_sb +0 p0_5_1 -1 p1_5_1 >= -1
+0 x_5_2_0 +1 x_5_2_1 +0 x_5_2_2 -1 x_5_2_3 -1 x_5_1_0_sb +0 x_5_1_1_sb -1 x_5_1_2_sb +0 x_5_1_3_sb +0 p0_5_1 -1 p1_5_1 >= -3
+0 x_5_2_0 +1 x_5_2_1 +1 x_5_2_2 +0 x_5_2_3 +0 x_5_1_0_sb +0 x_5_1_1_sb +1 x_5_1_2_sb -1 x_5_1_3_sb +0 p0_5_1 -1 p1_5_1 >= -1
-1 x_5_2_0 +0 x_5_2_1 -1 x_5_2_2 +0 x_5_2_3 -1 x_5_1_0_sb +0 x_5_1_1_sb +1 x_5_1_2_sb +0 x_5_1_3_sb +0 p0_5_1 -1 p1_5_1 >= -3
+0 x_5_2_0 -1 x_5_2_1 -1 x_5_2_2 +0 x_5_2_3 +0 x_5_1_0_sb +1 x_5_1_1_sb +0 x_5_1_2_sb +1 x_5_1_3_sb +0 p0_5_1 -1 p1_5_1 >= -2
+0 x_5_2_0 -1 x_5_2_1 +0 x_5_2_2 +0 x_5_2_3 +1 x_5_1_0_sb +1 x_5_1_1_sb +0 x_5_1_2_sb +1 x_5_1_3_sb +0 p0_5_1 +1 p1_5_1 >= 0
-1 x_5_2_0 -1 x_5_2_1 +0 x_5_2_2 +1 x_5_2_3 +0 x_5_1_0_sb +1 x_5_1_1_sb +0 x_5_1_2_sb +1 x_5_1_3_sb +0 p0_5_1 -1 p1_5_1 >= -2
+0 x_5_2_0 -1 x_5_2_1 +0 x_5_2_2 +0 x_5_2_3 +1 x_5_1_0_sb +0 x_5_1_1_sb +1 x_5_1_2_sb +1 x_5_1_3_sb +0 p0_5_1 -1 p1_5_1 >= -1
-1 x_5_2_0 +0 x_5_2_1 -1 x_5_2_2 +0 x_5_2_3 +1 x_5_1_0_sb +1 x_5_1_1_sb +0 x_5_1_2_sb +0 x_5_1_3_sb +0 p0_5_1 -1 p1_5_1 >= -2
+0 x_5_2_0 +1 x_5_2_1 -1 x_5_2_2 -1 x_5_2_3 +0 x_5_1_0_sb +0 x_5_1_1_sb +0 x_5_1_2_sb +1 x_5_1_3_sb +0 p0_5_1 -1 p1_5_1 >= -2
-1 x_5_2_0 -1 x_5_2_1 +0 x_5_2_2 -1 x_5_2_3 +0 x_5_1_0_sb +1 x_5_1_1_sb +0 x_5_1_2_sb -1 x_5_1_3_sb +0 p0_5_1 -1 p1_5_1 >= -4
-1 x_5_2_0 +1 x_5_2_1 +0 x_5_2_2 +1 x_5_2_3 +0 x_5_1_0_sb +1 x_5_1_1_sb +0 x_5_1_2_sb +1 x_5_1_3_sb +0 p0_5_1 +1 p1_5_1 >= 0
+0 x_5_2_0 +0 x_5_2_1 +0 x_5_2_2 +0 x_5_2_3 +1 x_5_1_0_sb -1 x_5_1_1_sb +0 x_5_1_2_sb -1 x_5_1_3_sb +0 p0_5_1 +1 p1_5_1 >= -1
+1 x_5_2_0 +0 x_5_2_1 +1 x_5_2_2 +0 x_5_2_3 +1 x_5_1_0_sb -1 x_5_1_1_sb +0 x_5_1_2_sb +0 x_5_1_3_sb +0 p0_5_1 -1 p1_5_1 >= -1
+0 x_5_2_0 +1 x_5_2_1 +0 x_5_2_2 +1 x_5_2_3 +0 x_5_1_0_sb -1 x_5_1_1_sb -1 x_5_1_2_sb +0 x_5_1_3_sb +0 p0_5_1 -1 p1_5_1 >= -2
+1 x_5_2_0 -1 x_5_2_1 +0 x_5_2_2 -1 x_5_2_3 +0 x_5_1_0_sb +0 x_5_1_1_sb +1 x_5_1_2_sb +0 x_5_1_3_sb +0 p0_5_1 +0 p1_5_1 >= -1
+1 x_5_2_0 -1 x_5_2_1 -1 x_5_2_2 +0 x_5_2_3 +0 x_5_1_0_sb +0 x_5_1_1_sb +1 x_5_1_2_sb -1 x_5_1_3_sb +0 p0_5_1 -1 p1_5_1 >= -3
+1 x_5_2_0 -1 x_5_2_1 +0 x_5_2_2 -1 x_5_2_3 +0 x_5_1_0_sb +0 x_5_1_1_sb +0 x_5_1_2_sb +0 x_5_1_3_sb +0 p0_5_1 +1 p1_5_1 >= -1
+1 x_5_2_0 +0 x_5_2_1 +0 x_5_2_2 +0 x_5_2_3 -1 x_5_1_0_sb +1 x_5_1_1_sb +0 x_5_1_2_sb -1 x_5_1_3_sb +0 p0_5_1 +1 p1_5_1 >= -1
+1 x_5_2_0 +0 x_5_2_1 +0 x_5_2_2 +0 x_5_2_3 -1 x_5_1_0_sb -1 x_5_1_1_sb +0 x_5_1_2_sb +1 x_5_1_3_sb +0 p0_5_1 +1 p1_5_1 >= -1
-1 x_5_2_0 -1 x_5_2_1 +0 x_5_2_2 +1 x_5_2_3 +1 x_5_1_0_sb +0 x_5_1_1_sb +0 x_5_1_2_sb +0 x_5_1_3_sb +0 p0_5_1 +1 p1_5_1 >= -1
-1 x_5_2_0 +1 x_5_2_1 +0 x_5_2_2 -1 x_5_2_3 +1 x_5_1_0_sb +0 x_5_1_1_sb +0 x_5_1_2_sb +0 x_5_1_3_sb +0 p0_5_1 +1 p1_5_1 >= -1
+0 x_5_2_0 -1 x_5_2_1 +0 x_5_2_2 -1 x_5_2_3 +0 x_5_1_0_sb -1 x_5_1_1_sb +0 x_5_1_2_sb -1 x_5_1_3_sb +0 p0_5_1 +1 p1_5_1 >= -3
+1 x_5_2_0 +1 x_5_2_1 +0 x_5_2_2 +1 x_5_2_3 +0 x_5_1_0_sb +0 x_5_1_1_sb -1 x_5_1_2_sb +0 x_5_1_3_sb +0 p0_5_1 +0 p1_5_1 >= 0
-1 x_5_2_0 +0 x_5_2_1 +1 x_5_2_2 -1 x_5_2_3 +0 x_5_1_0_sb -1 x_5_1_1_sb -1 x_5_1_2_sb +0 x_5_1_3_sb +0 p0_5_1 -1 p1_5_1 >= -4
+1 x_5_2_0 +1 x_5_2_1 +0 x_5_2_2 -1 x_5_2_3 +1 x_5_1_0_sb +1 x_5_1_1_sb +0 x_5_1_2_sb -1 x_5_1_3_sb +0 p0_5_1 -1 p1_5_1 >= -2
+1 x_5_2_0 +0 x_5_2_1 +1 x_5_2_2 +0 x_5_2_3 +0 x_5_1_0_sb +1 x_5_1_1_sb +1 x_5_1_2_sb +1 x_5_1_3_sb +0 p0_5_1 -1 p1_5_1 >= 0
+1 x_5_2_0 +0 x_5_2_1 -1 x_5_2_2 -1 x_5_2_3 -1 x_5_1_0_sb -1 x_5_1_1_sb +0 x_5_1_2_sb -1 x_5_1_3_sb +0 p0_5_1 -1 p1_5_1 >= -5
+0 x_5_2_0 +0 x_5_2_1 +1 x_5_2_2 +1 x_5_2_3 -1 x_5_1_0_sb +0 x_5_1_1_sb -1 x_5_1_2_sb +0 x_5_1_3_sb +0 p0_5_1 -1 p1_5_1 >= -2
+0 x_5_2_0 +0 x_5_2_1 +1 x_5_2_2 +0 x_5_2_3 +1 x_5_1_0_sb -1 x_5_1_1_sb +0 x_5_1_2_sb -1 x_5_1_3_sb +0 p0_5_1 +0 p1_5_1 >= -1
+0 x_5_2_0 -1 x_5_2_1 +0 x_5_2_2 -1 x_5_2_3 +0 x_5_1_0_sb +1 x_5_1_1_sb +0 x_5_1_2_sb +1 x_5_1_3_sb +0 p0_5_1 +1 p1_5_1 >= -1
+0 x_5_2_0 +1 x_5_2_1 +0 x_5_2_2 +1 x_5_2_3 +0 x_5_1_0_sb -1 x_5_1_1_sb +0 x_5_1_2_sb -1 x_5_1_3_sb +0 p0_5_1 +1 p1_5_1 >= -1
+1 x_5_2_0 -1 x_5_2_1 +1 x_5_2_2 -1 x_5_2_3 +1 x_5_1_0_sb +0 x_5_1_1_sb +0 x_5_1_2_sb +0 x_5_1_3_sb +0 p0_5_1 +0 p1_5_1 >= -1
+1 x_5_2_0 +0 x_5_2_1 +0 x_5_2_2 +0 x_5_2_3 +1 x_5_1_0_sb -1 x_5_1_1_sb +1 x_5_1_2_sb -1 x_5_1_3_sb +0 p0_5_1 +0 p1_5_1 >= -1
+0 x_5_2_0 -1 x_5_2_1 +0 x_5_2_2 -1 x_5_2_3 +1 x_5_1_0_sb -1 x_5_1_1_sb -1 x_5_1_2_sb -1 x_5_1_3_sb +0 p0_5_1 +0 p1_5_1 >= -4
+1 x_5_2_0 +0 x_5_2_1 +0 x_5_2_2 +1 x_5_2_3 +0 x_5_1_0_sb -1 x_5_1_1_sb -1 x_5_1_2_sb +1 x_5_1_3_sb +0 p0_5_1 -1 p1_5_1 >= -2
+0 x_5_2_0 +0 x_5_2_1 -1 x_5_2_2 +1 x_5_2_3 -1 x_5_1_0_sb +1 x_5_1_1_sb +0 x_5_1_2_sb -1 x_5_1_3_sb +0 p0_5_1 -1 p1_5_1 >= -3
+0 x_5_2_0 +1 x_5_2_1 +0 x_5_2_2 +1 x_5_2_3 -1 x_5_1_0_sb -1 x_5_1_1_sb +0 x_5_1_2_sb +1 x_5_1_3_sb +0 p0_5_1 -1 p1_5_1 >= -2
-1 x_5_2_0 +1 x_5_2_1 +0 x_5_2_2 -1 x_5_2_3 +0 x_5_1_0_sb +0 x_5_1_1_sb -1 x_5_1_2_sb +1 x_5_1_3_sb +0 p0_5_1 -1 p1_5_1 >= -3
-1 x_5_2_0 +0 x_5_2_1 +0 x_5_2_2 +0 x_5_2_3 -1 x_5_1_0_sb +1 x_5_1_1_sb +0 x_5_1_2_sb -1 x_5_1_3_sb +0 p0_5_1 -1 p1_5_1 >= -3
+0 x_5_2_0 +0 x_5_2_1 -1 x_5_2_2 +0 x_5_2_3 +1 x_5_1_0_sb +1 x_5_1_1_sb +0 x_5_1_2_sb +1 x_5_1_3_sb +0 p0_5_1 +0 p1_5_1 >= 0
+0 x_5_4_0 +0 x_5_4_1 +0 x_5_4_2 +0 x_5_4_3 +0 x_5_2_0_sb +0 x_5_2_1_sb +0 x_5_2_2_sb +0 x_5_2_3_sb -1 p0_5_2 -1 p1_5_2 >= -1
+0 x_5_4_0 +0 x_5_4_1 +0 x_5_4_2 +0 x_5_4_3 +0 x_5_2_0_sb +0 x_5_2_1_sb +0 x_5_2_2_sb -1 x_5_2_3_sb +1 p0_5_2 +1 p1_5_2 >= 0
+0 x_5_4_0 +0 x_5_4_1 +0 x_5_4_2 +0 x_5_4_3 +0 x_5_2_0_sb -1 x_5_2_1_sb +0 x_5_2_2_sb +0 x_5_2_3_sb +1 p0_5_2 +1 p1_5_2 >= 0
+0 x_5_4_0 +0 x_5_4_1 +0 x_5_4_2 +0 x_5_4_3 -1 x_5_2_0_sb +0 x_5_2_1_sb +0 x_5_2_2_sb +0 x_5_2_3_sb +1 p0_5_2 +1 p1_5_2 >= 0
+0 x_5_4_0 +0 x_5_4_1 +0 x_5_4_2 +0 x_5_4_3 +1 x_5_2_0_sb +1 x_5_2_1_sb +1 x_5_2_2_sb +1 x_5_2_3_sb +0 p0_5_2 -1 p1_5_2 >= 0
+0 x_5_4_0 +0 x_5_4_1 +0 x_5_4_2 -1 x_5_4_3 +1 x_5_2_0_sb +1 x_5_2_1_sb +0 x_5_2_2_sb +1 x_5_2_3_sb +0 p0_5_2 +1 p1_5_2 >= 0
-1 x_5_4_0 +0 x_5_4_1 -1 x_5_4_2 +0 x_5_4_3 +1 x_5_2_0_sb +0 x_5_2_1_sb +0 x_5_2_2_sb +1 x_5_2_3_sb +0 p0_5_2 -1 p1_5_2 >= -2
+1 x_5_4_0 +0 x_5_4_1 +1 x_5_4_2 +0 x_5_4_3 +1 x_5_2_0_sb +0 x_5_2_1_sb +1 x_5_2_2_sb +0 x_5_2_3_sb +0 p0_5_2 -1 p1_5_2 >= 0
+0 x_5_4_0 +0 x_5_4_1 +0 x_5_4_2 +1 x_5_4_3 +0 x_5_2_0_sb +1 x_5_2_1_sb -1 x_5_2_2_sb -1 x_5_2_3_sb +0 p0_5_2 -1 p1_5_2 >= -2
-1 x_5_4_0 +0 x_5_4_1 +0 x_5_4_2 -1 x_5_4_3 -1 x_5_2_0_sb +0 x_5_2_1_sb +0 x_5_2_2_sb +1 x_5_2_3_sb +0 p0_5_2 -1 p1_5_2 >= -3
+0 x_5_4_0 +0 x_5_4_1 +0 x_5_4_2 +1 x_5_4_3 -1 x_5_2_0_sb -1 x_5_2_1_sb -1 x_5_2_2_sb +0 x_5_2_3_sb +0 p0_5_2 -1 p1_5_2 >= -3
+1 x_5_4_0 +1 x_5_4_1 +0 x_5_4_2 +1 x_5_4_3 +0 x_5_2_0_sb +0 x_5_2_1_sb +0 x_5_2_2_sb +0 x_5_2_3_sb -1 p0_5_2 +0 p1_5_2 >= 0
+0 x_5_4_0 +0 x_5_4_1 +1 x_5_4_2 +1 x_5_4_3 +0 x_5_2_0_sb -1 x_5_2_1_sb +1 x_5_2_2_sb +0 x_5_2_3_sb +0 p0_5_2 -1 p1_5_2 >= -1
+0 x_5_4_0 +1 x_5_4_1 +0 x_5_4_2 -1 x_5_4_3 -1 x_5_2_0_sb +0 x_5_2_1_sb -1 x_5_2_2_sb +0 x_5_2_3_sb +0 p0_5_2 -1 p1_5_2 >= -3
+0 x_5_4_0 +1 x_5_4_1 +1 x_5_4_2 +0 x_5_4_3 +0 x_5_2_0_sb +0 x_5_2_1_sb +1 x_5_2_2_sb -1 x_5_2_3_sb +0 p0_5_2 -1 p1_5_2 >= -1
-1 x_5_4_0 +0 x_5_4_1 -1 x_5_4_2 +0 x_5_4_3 -1 x_5_2_0_sb +0 x_5_2_1_sb +1 x_5_2_2_sb +0 x_5_2_3_sb +0 p0_5_2 -1 p1_5_2 >= -3
+0 x_5_4_0 -1 x_5_4_1 -1 x_5_4_2 +0 x_5_4_3 +0 x_5_2_0_sb +1 x_5_2_1_sb +0 x_5_2_2_sb +1 x_5_2_3_sb +0 p0_5_2 -1 p1_5_2 >= -2
+0 x_5_4_0 -1 x_5_4_1 +0 x_5_4_2 +0 x_5_4_3 +1 x_5_2_0_sb +1 x_5_2_1_sb +0 x_5_2_2_sb +1 x_5_2_3_sb +0 p0_5_2 +1 p1_5_2 >= 0
-1 x_5_4_0 -1 x_5_4_1 +0 x_5_4_2 +1 x_5_4_3 +0 x_5_2_0_sb +1 x_5_2_1_sb +0 x_5_2_2_sb +1 x_5_2_3_sb +0 p0_5_2 -1 p1_5_2 >= -2
+0 x_5_4_0 -1 x_5_4_1 +0 x_5_4_2 +0 x_5_4_3 +1 x_5_2_0_sb +0 x_5_2_1_sb +1 x_5_2_2_sb +1 x_5_2_3_sb +0 p0_5_2 -1 p1_5_2 >= -1
-1 x_5_4_0 +0 x_5_4_1 -1 x_5_4_2 +0 x_5_4_3 +1 x_5_2_0_sb +1 x_5_2_1_sb +0 x_5_2_2_sb +0 x_5_2_3_sb +0 p0_5_2 -1 p1_5_2 >= -2
+0 x_5_4_0 +1 x_5_4_1 -1 x_5_4_2 -1 x_5_4_3 +0 x_5_2_0_sb +0 x_5_2_1_sb +0 x_5_2_2_sb +1 x_5_2_3_sb +0 p0_5_2 -1 p1_5_2 >= -2
-1 x_5_4_0 -1 x_5_4_1 +0 x_5_4_2 -1 x_5_4_3 +0 x_5_2_0_sb +1 x_5_2_1_sb +0 x_5_2_2_sb -1 x_5_2_3_sb +0 p0_5_2 -1 p1_5_2 >= -4
-1 x_5_4_0 +1 x_5_4_1 +0 x_5_4_2 +1 x_5_4_3 +0 x_5_2_0_sb +1 x_5_2_1_sb +0 x_5_2_2_sb +1 x_5_2_3_sb +0 p0_5_2 +1 p1_5_2 >= 0
+0 x_5_4_0 +0 x_5_4_1 +0 x_5_4_2 +0 x_5_4_3 +1 x_5_2_0_sb -1 x_5_2_1_sb +0 x_5_2_2_sb -1 x_5_2_3_sb +0 p0_5_2 +1 p1_5_2 >= -1
+1 x_5_4_0 +0 x_5_4_1 +1 x_5_4_2 +0 x_5_4_3 +1 x_5_2_0_sb -1 x_5_2_1_sb +0 x_5_2_2_sb +0 x_5_2_3_sb +0 p0_5_2 -1 p1_5_2 >= -1
+0 x_5_4_0 +1 x_5_4_1 +0 x_5_4_2 +1 x_5_4_3 +0 x_5_2_0_sb -1 x_5_2_1_sb -1 x_5_2_2_sb +0 x_5_2_3_sb +0 p0_5_2 -1 p1_5_2 >= -2
+1 x_5_4_0 -1 x_5_4_1 +0 x_5_4_2 -1 x_5_4_3 +0 x_5_2_0_sb +0 x_5_2_1_sb +1 x_5_2_2_sb +0 x_5_2_3_sb +0 p0_5_2 +0 p1_5_2 >= -1
+1 x_5_4_0 -1 x_5_4_1 -1 x_5_4_2 +0 x_5_4_3 +0 x_5_2_0_sb +0 x_5_2_1_sb +1 x_5_2_2_sb -1 x_5_2_3_sb +0 p0_5_2 -1 p1_5_2 >= -3
+1 x_5_4_0 -1 x_5_4_1 +0 x_5_4_2 -1 x_5_4_3 +0 x_5_2_0_sb +0 x_5_2_1_sb +0 x_5_2_2_sb +0 x_5_2_3_sb +0 p0_5_2 +1 p1_5_2 >= -1
+1 x_5_4_0 +0 x_5_4_1 +0 x_5_4_2 +0 x_5_4_3 -1 x_5_2_0_sb +1 x_5_2_1_sb +0 x_5_2_2_sb -1 x_5_2_3_sb +0 p0_5_2 +1 p1_5_2 >= -1
+1 x_5_4_0 +0 x_5_4_1 +0 x_5_4_2 +0 x_5_4_3 -1 x_5_2_0_sb -1 x_5_2_1_sb +0 x_5_2_2_sb +1 x_5_2_3_sb +0 p0_5_2 +1 p1_5_2 >= -1
-1 x_5_4_0 -1 x_5_4_1 +0 x_5_4_2 +1 x_5_4_3 +1 x_5_2_0_sb +0 x_5_2_1_sb +0 x_5_2_2_sb +0 x_5_2_3_sb +0 p0_5_2 +1 p1_5_2 >= -1
-1 x_5_4_0 +1 x_5_4_1 +0 x_5_4_2 -1 x_5_4_3 +1 x_5_2_0_sb +0 x_5_2_1_sb +0 x_5_2_2_sb +0 x_5_2_3_sb +0 p0_5_2 +1 p1_5_2 >= -1
+0 x_5_4_0 -1 x_5_4_1 +0 x_5_4_2 -1 x_5_4_3 +0 x_5_2_0_sb -1 x_5_2_1_sb +0 x_5_2_2_sb -1 x_5_2_3_sb +0 p0_5_2 +1 p1_5_2 >= -3
+1 x_5_4_0 +1 x_5_4_1 +0 x_5_4_2 +1 x_5_4_3 +0 x_5_2_0_sb +0 x_5_2_1_sb -1 x_5_2_2_sb +0 x_5_2_3_sb +0 p0_5_2 +0 p1_5_2 >= 0
-1 x_5_4_0 +0 x_5_4_1 +1 x_5_4_2 -1 x_5_4_3 +0 x_5_2_0_sb -1 x_5_2_1_sb -1 x_5_2_2_sb +0 x_5_2_3_sb +0 p0_5_2 -1 p1_5_2 >= -4
+1 x_5_4_0 +1 x_5_4_1 +0 x_5_4_2 -1 x_5_4_3 +1 x_5_2_0_sb +1 x_5_2_1_sb +0 x_5_2_2_sb -1 x_5_2_3_sb +0 p0_5_2 -1 p1_5_2 >= -2
+1 x_5_4_0 +0 x_5_4_1 +1 x_5_4_2 +0 x_5_4_3 +0 x_5_2_0_sb +1 x_5_2_1_sb +1 x_5_2_2_sb +1 x_5_2_3_sb +0 p0_5_2 -1 p1_5_2 >= 0
+1 x_5_4_0 +0 x_5_4_1 -1 x_5_4_2 -1 x_5_4_3 -1 x_5_2_0_sb -1 x_5_2_1_sb +0 x_5_2_2_sb -1 x_5_2_3_sb +0 p0_5_2 -1 p1_5_2 >= -5
+0 x_5_4_0 +0 x_5_4_1 +1 x_5_4_2 +1 x_5_4_3 -1 x_5_2_0_sb +0 x_5_2_1_sb -1 x_5_2_2_sb +0 x_5_2_3_sb +0 p0_5_2 -1 p1_5_2 >= -2
+0 x_5_4_0 +0 x_5_4_1 +1 x_5_4_2 +0 x_5_4_3 +1 x_5_2_0_sb -1 x_5_2_1_sb +0 x_5_2_2_sb -1 x_5_2_3_sb +0 p0_5_2 +0 p1_5_2 >= -1
+0 x_5_4_0 -1 x_5_4_1 +0 x_5_4_2 -1 x_5_4_3 +0 x_5_2_0_sb +1 x_5_2_1_sb +0 x_5_2_2_sb +1 x_5_2_3_sb +0 p0_5_2 +1 p1_5_2 >= -1
+0 x_5_4_0 +1 x_5_4_1 +0 x_5_4_2 +1 x_5_4_3 +0 x_5_2_0_sb -1 x_5_2_1_sb +0 x_5_2_2_sb -1 x_5_2_3_sb +0 p0_5_2 +1 p1_5_2 >= -1
+1 x_5_4_0 -1 x_5_4_1 +1 x_5_4_2 -1 x_5_4_3 +1 x_5_2_0_sb +0 x_5_2_1_sb +0 x_5_2_2_sb +0 x_5_2_3_sb +0 p0_5_2 +0 p1_5_2 >= -1
+1 x_5_4_0 +0 x_5_4_1 +0 x_5_4_2 +0 x_5_4_3 +1 x_5_2_0_sb -1 x_5_2_1_sb +1 x_5_2_2_sb -1 x_5_2_3_sb +0 p0_5_2 +0 p1_5_2 >= -1
+0 x_5_4_0 -1 x_5_4_1 +0 x_5_4_2 -1 x_5_4_3 +1 x_5_2_0_sb -1 x_5_2_1_sb -1 x_5_2_2_sb -1 x_5_2_3_sb +0 p0_5_2 +0 p1_5_2 >= -4
+1 x_5_4_0 +0 x_5_4_1 +0 x_5_4_2 +1 x_5_4_3 +0 x_5_2_0_sb -1 x_5_2_1_sb -1 x_5_2_2_sb +1 x_5_2_3_sb +0 p0_5_2 -1 p1_5_2 >= -2
+0 x_5_4_0 +0 x_5_4_1 -1 x_5_4_2 +1 x_5_4_3 -1 x_5_2_0_sb +1 x_5_2_1_sb +0 x_5_2_2_sb -1 x_5_2_3_sb +0 p0_5_2 -1 p1_5_2 >= -3
+0 x_5_4_0 +1 x_5_4_1 +0 x_5_4_2 +1 x_5_4_3 -1 x_5_2_0_sb -1 x_5_2_1_sb +0 x_5_2_2_sb +1 x_5_2_3_sb +0 p0_5_2 -1 p1_5_2 >= -2
-1 x_5_4_0 +1 x_5_4_1 +0 x_5_4_2 -1 x_5_4_3 +0 x_5_2_0_sb +0 x_5_2_1_sb -1 x_5_2_2_sb +1 x_5_2_3_sb +0 p0_5_2 -1 p1_5_2 >= -3
-1 x_5_4_0 +0 x_5_4_1 +0 x_5_4_2 +0 x_5_4_3 -1 x_5_2_0_sb +1 x_5_2_1_sb +0 x_5_2_2_sb -1 x_5_2_3_sb +0 p0_5_2 -1 p1_5_2 >= -3
+0 x_5_4_0 +0 x_5_4_1 -1 x_5_4_2 +0 x_5_4_3 +1 x_5_2_0_sb +1 x_5_2_1_sb +0 x_5_2_2_sb +1 x_5_2_3_sb +0 p0_5_2 +0 p1_5_2 >= 0
+0 x_5_6_0 +0 x_5_6_1 +0 x_5_6_2 +0 x_5_6_3 +0 x_5_3_0_sb +0 x_5_3_1_sb +0 x_5_3_2_sb +0 x_5_3_3_sb -1 p0_5_3 -1 p1_5_3 >= -1
+0 x_5_6_0 +0 x_5_6_1 +0 x_5_6_2 +0 x_5_6_3 +0 x_5_3_0_sb +0 x_5_3_1_sb +0 x_5_3_2_sb -1 x_5_3_3_sb +1 p0_5_3 +1 p1_5_3 >= 0
+0 x_5_6_0 +0 x_5_6_1 +0 x_5_6_2 +0 x_5_6_3 +0 x_5_3_0_sb -1 x_5_3_1_sb +0 x_5_3_2_sb +0 x_5_3_3_sb +1 p0_5_3 +1 p1_5_3 >= 0
+0 x_5_6_0 +0 x_5_6_1 +0 x_5_6_2 +0 x_5_6_3 -1 x_5_3_0_sb +0 x_5_3_1_sb +0 x_5_3_2_sb +0 x_5_3_3_sb +1 p0_5_3 +1 p1_5_3 >= 0
+0 x_5_6_0 +0 x_5_6_1 +0 x_5_6_2 +0 x_5_6_3 +1 x_5_3_0_sb +1 x_5_3_1_sb +1 x_5_3_2_sb +1 x_5_3_3_sb +0 p0_5_3 -1 p1_5_3 >= 0
+0 x_5_6_0 +0 x_5_6_1 +0 x_5_6_2 -1 x_5_6_3 +1 x_5_3_0_sb +1 x_5_3_1_sb +0 x_5_3_2_sb +1 x_5_3_3_sb +0 p0_5_3 +1 p1_5_3 >= 0
-1 x_5_6_0 +0 x_5_6_1 -1 x_5_6_2 +0 x_5_6_3 +1 x_5_3_0_sb +0 x_5_3_1_sb +0 x_5_3_2_sb +1 x_5_3_3_sb +0 p0_5_3 -1 p1_5_3 >= -2
+1 x_5_6_0 +0 x_5_6_1 +1 x_5_6_2 +0 x_5_6_3 +1 x_5_3_0_sb +0 x_5_3_1_sb +1 x_5_3_2_sb +0 x_5_3_3_sb +0 p0_5_3 -1 p1_5_3 >= 0
+0 x_5_6_0 +0 x_5_6_1 +0 x_5_6_2 +1 x_5_6_3 +0 x_5_3_0_sb +1 x_5_3_1_sb -1 x_5_3_2_sb -1 x_5_3_3_sb +0 p0_5_3 -1 p1_5_3 >= -2
-1 x_5_6_0 +0 x_5_6_1 +0 x_5_6_2 -1 x_5_6_3 -1 x_5_3_0_sb +0 x_5_3_1_sb +0 x_5_3_2_sb +1 x_5_3_3_sb +0 p0_5_3 -1 p1_5_3 >= -3
+0 x_5_6_0 +0 x_5_6_1 +0 x_5_6_2 +1 x_5_6_3 -1 x_5_3_0_sb -1 x_5_3_1_sb -1 x_5_3_2_sb +0 x_5_3_3_sb +0 p0_5_3 -1 p1_5_3 >= -3
+1 x_5_6_0 +1 x_5_6_1 +0 x_5_6_2 +1 x_5_6_3 +0 x_5_3_0_sb +0 x_5_3_1_sb +0 x_5_3_2_sb +0 x_5_3_3_sb -1 p0_5_3 +0 p1_5_3 >= 0
+0 x_5_6_0 +0 x_5_6_1 +1 x_5_6_2 +1 x_5_6_3 +0 x_5_3_0_sb -1 x_5_3_1_sb +1 x_5_3_2_sb +0 x_5_3_3_sb +0 p0_5_3 -1 p1_5_3 >= -1
+0 x_5_6_0 +1 x_5_6_1 +0 x_5_6_2 -1 x_5_6_3 -1 x_5_3_0_sb +0 x_5_3_1_sb -1 x_5_3_2_sb +0 x_5_3_3_sb +0 p0_5_3 -1 p1_5_3 >= -3
+0 x_5_6_0 +1 x_5_6_1 +1 x_5_6_2 +0 x_5_6_3 +0 x_5_3_0_sb +0 x_5_3_1_sb +1 x_5_3_2_sb -1 x_5_3_3_sb +0 p0_5_3 -1 p1_5_3 >= -1
-1 x_5_6_0 +0 x_5_6_1 -1 x_5_6_2 +0 x_5_6_3 -1 x_5_3_0_sb +0 x_5_3_1_sb +1 x_5_3_2_sb +0 x_5_3_3_sb +0 p0_5_3 -1 p1_5_3 >= -3
+0 x_5_6_0 -1 x_5_6_1 -1 x_5_6_2 +0 x_5_6_3 +0 x_5_3_0_sb +1 x_5_3_1_sb +0 x_5_3_2_sb +1 x_5_3_3_sb +0 p0_5_3 -1 p1_5_3 >= -2
+0 x_5_6_0 -1 x_5_6_1 +0 x_5_6_2 +0 x_5_6_3 +1 x_5_3_0_sb +1 x_5_3_1_sb +0 x_5_3_2_sb +1 x_5_3_3_sb +0 p0_5_3 +1 p1_5_3 >= 0
-1 x_5_6_0 -1 x_5_6_1 +0 x_5_6_2 +1 x_5_6_3 +0 x_5_3_0_sb +1 x_5_3_1_sb +0 x_5_3_2_sb +1 x_5_3_3_sb +0 p0_5_3 -1 p1_5_3 >= -2
+0 x_5_6_0 -1 x_5_6_1 +0 x_5_6_2 +0 x_5_6_3 +1 x_5_3_0_sb +0 x_5_3_1_sb +1 x_5_3_2_sb +1 x_5_3_3_sb +0 p0_5_3 -1 p1_5_3 >= -1
-1 x_5_6_0 +0 x_5_6_1 -1 x_5_6_2 +0 x_5_6_3 +1 x_5_3_0_sb +1 x_5_3_1_sb +0 x_5_3_2_sb +0 x_5_3_3_sb +0 p0_5_3 -1 p1_5_3 >= -2
+0 x_5_6_0 +1 x_5_6_1 -1 x_5_6_2 -1 x_5_6_3 +0 x_5_3_0_sb +0 x_5_3_1_sb +0 x_5_3_2_sb +1 x_5_3_3_sb +0 p0_5_3 -1 p1_5_3 >= -2
-1 x_5_6_0 -1 x_5_6_1 +0 x_5_6_2 -1 x_5_6_3 +0 x_5_3_0_sb +1 x_5_3_1_sb +0 x_5_3_2_sb -1 x_5_3_3_sb +0 p0_5_3 -1 p1_5_3 >= -4
-1 x_5_6_0 +1 x_5_6_1 +0 x_5_6_2 +1 x_5_6_3 +0 x_5_3_0_sb +1 x_5_3_1_sb +0 x_5_3_2_sb +1 x_5_3_3_sb +0 p0_5_3 +1 p1_5_3 >= 0
+0 x_5_6_0 +0 x_5_6_1 +0 x_5_6_2 +0 x_5_6_3 +1 x_5_3_0_sb -1 x_5_3_1_sb +0 x_5_3_2_sb -1 x_5_3_3_sb +0 p0_5_3 +1 p1_5_3 >= -1
+1 x_5_6_0 +0 x_5_6_1 +1 x_5_6_2 +0 x_5_6_3 +1 x_5_3_0_sb -1 x_5_3_1_sb +0 x_5_3_2_sb +0 x_5_3_3_sb +0 p0_5_3 -1 p1_5_3 >= -1
+0 x_5_6_0 +1 x_5_6_1 +0 x_5_6_2 +1 x_5_6_3 +0 x_5_3_0_sb -1 x_5_3_1_sb -1 x_5_3_2_sb +0 x_5_3_3_sb +0 p0_5_3 -1 p1_5_3 >= -2
+1 x_5_6_0 -1 x_5_6_1 +0 x_5_6_2 -1 x_5_6_3 +0 x_5_3_0_sb +0 x_5_3_1_sb +1 x_5_3_2_sb +0 x_5_3_3_sb +0 p0_5_3 +0 p1_5_3 >= -1
+1 x_5_6_0 -1 x_5_6_1 -1 x_5_6_2 +0 x_5_6_3 +0 x_5_3_0_sb +0 x_5_3_1_sb +1 x_5_3_2_sb -1 x_5_3_3_sb +0 p0_5_3 -1 p1_5_3 >= -3
+1 x_5_6_0 -1 x_5_6_1 +0 x_5_6_2 -1 x_5_6_3 +0 x_5_3_0_sb +0 x_5_3_1_sb +0 x_5_3_2_sb +0 x_5_3_3_sb +0 p0_5_3 +1 p1_5_3 >= -1
+1 x_5_6_0 +0 x_5_6_1 +0 x_5_6_2 +0 x_5_6_3 -1 x_5_3_0_sb +1 x_5_3_1_sb +0 x_5_3_2_sb -1 x_5_3_3_sb +0 p0_5_3 +1 p1_5_3 >= -1
+1 x_5_6_0 +0 x_5_6_1 +0 x_5_6_2 +0 x_5_6_3 -1 x_5_3_0_sb -1 x_5_3_1_sb +0 x_5_3_2_sb +1 x_5_3_3_sb +0 p0_5_3 +1 p1_5_3 >= -1
-1 x_5_6_0 -1 x_5_6_1 +0 x_5_6_2 +1 x_5_6_3 +1 x_5_3_0_sb +0 x_5_3_1_sb +0 x_5_3_2_sb +0 x_5_3_3_sb +0 p0_5_3 +1 p1_5_3 >= -1
-1 x_5_6_0 +1 x_5_6_1 +0 x_5_6_2 -1 x_5_6_3 +1 x_5_3_0_sb +0 x_5_3_1_sb +0 x_5_3_2_sb +0 x_5_3_3_sb +0 p0_5_3 +1 p1_5_3 >= -1
+0 x_5_6_0 -1 x_5_6_1 +0 x_5_6_2 -1 x_5_6_3 +0 x_5_3_0_sb -1 x_5_3_1_sb +0 x_5_3_2_sb -1 x_5_3_3_sb +0 p0_5_3 +1 p1_5_3 >= -3
+1 x_5_6_0 +1 x_5_6_1 +0 x_5_6_2 +1 x_5_6_3 +0 x_5_3_0_sb +0 x_5_3_1_sb -1 x_5_3_2_sb +0 x_5_3_3_sb +0 p0_5_3 +0 p1_5_3 >= 0
-1 x_5_6_0 +0 x_5_6_1 +1 x_5_6_2 -1 x_5_6_3 +0 x_5_3_0_sb -1 x_5_3_1_sb -1 x_5_3_2_sb +0 x_5_3_3_sb +0 p0_5_3 -1 p1_5_3 >= -4
+1 x_5_6_0 +1 x_5_6_1 +0 x_5_6_2 -1 x_5_6_3 +1 x_5_3_0_sb +1 x_5_3_1_sb +0 x_5_3_2_sb -1 x_5_3_3_sb +0 p0_5_3 -1 p1_5_3 >= -2
+1 x_5_6_0 +0 x_5_6_1 +1 x_5_6_2 +0 x_5_6_3 +0 x_5_3_0_sb +1 x_5_3_1_sb +1 x_5_3_2_sb +1 x_5_3_3_sb +0 p0_5_3 -1 p1_5_3 >= 0
+1 x_5_6_0 +0 x_5_6_1 -1 x_5_6_2 -1 x_5_6_3 -1 x_5_3_0_sb -1 x_5_3_1_sb +0 x_5_3_2_sb -1 x_5_3_3_sb +0 p0_5_3 -1 p1_5_3 >= -5
+0 x_5_6_0 +0 x_5_6_1 +1 x_5_6_2 +1 x_5_6_3 -1 x_5_3_0_sb +0 x_5_3_1_sb -1 x_5_3_2_sb +0 x_5_3_3_sb +0 p0_5_3 -1 p1_5_3 >= -2
+0 x_5_6_0 +0 x_5_6_1 +1 x_5_6_2 +0 x_5_6_3 +1 x_5_3_0_sb -1 x_5_3_1_sb +0 x_5_3_2_sb -1 x_5_3_3_sb +0 p0_5_3 +0 p1_5_3 >= -1
+0 x_5_6_0 -1 x_5_6_1 +0 x_5_6_2 -1 x_5_6_3 +0 x_5_3_0_sb +1 x_5_3_1_sb +0 x_5_3_2_sb +1 x_5_3_3_sb +0 p0_5_3 +1 p1_5_3 >= -1
+0 x_5_6_0 +1 x_5_6_1 +0 x_5_6_2 +1 x_5_6_3 +0 x_5_3_0_sb -1 x_5_3_1_sb +0 x_5_3_2_sb -1 x_5_3_3_sb +0 p0_5_3 +1 p1_5_3 >= -1
+1 x_5_6_0 -1 x_5_6_1 +1 x_5_6_2 -1 x_5_6_3 +1 x_5_3_0_sb +0 x_5_3_1_sb +0 x_5_3_2_sb +0 x_5_3_3_sb +0 p0_5_3 +0 p1_5_3 >= -1
+1 x_5_6_0 +0 x_5_6_1 +0 x_5_6_2 +0 x_5_6_3 +1 x_5_3_0_sb -1 x_5_3_1_sb +1 x_5_3_2_sb -1 x_5_3_3_sb +0 p0_5_3 +0 p1_5_3 >= -1
+0 x_5_6_0 -1 x_5_6_1 +0 x_5_6_2 -1 x_5_6_3 +1 x_5_3_0_sb -1 x_5_3_1_sb -1 x_5_3_2_sb -1 x_5_3_3_sb +0 p0_5_3 +0 p1_5_3 >= -4
+1 x_5_6_0 +0 x_5_6_1 +0 x_5_6_2 +1 x_5_6_3 +0 x_5_3_0_sb -1 x_5_3_1_sb -1 x_5_3_2_sb +1 x_5_3_3_sb +0 p0_5_3 -1 p1_5_3 >= -2
+0 x_5_6_0 +0 x_5_6_1 -1 x_5_6_2 +1 x_5_6_3 -1 x_5_3_0_sb +1 x_5_3_1_sb +0 x_5_3_2_sb -1 x_5_3_3_sb +0 p0_5_3 -1 p1_5_3 >= -3
+0 x_5_6_0 +1 x_5_6_1 +0 x_5_6_2 +1 x_5_6_3 -1 x_5_3_0_sb -1 x_5_3_1_sb +0 x_5_3_2_sb +1 x_5_3_3_sb +0 p0_5_3 -1 p1_5_3 >= -2
-1 x_5_6_0 +1 x_5_6_1 +0 x_5_6_2 -1 x_5_6_3 +0 x_5_3_0_sb +0 x_5_3_1_sb -1 x_5_3_2_sb +1 x_5_3_3_sb +0 p0_5_3 -1 p1_5_3 >= -3
-1 x_5_6_0 +0 x_5_6_1 +0 x_5_6_2 +0 x_5_6_3 -1 x_5_3_0_sb +1 x_5_3_1_sb +0 x_5_3_2_sb -1 x_5_3_3_sb +0 p0_5_3 -1 p1_5_3 >= -3
+0 x_5_6_0 +0 x_5_6_1 -1 x_5_6_2 +0 x_5_6_3 +1 x_5_3_0_sb +1 x_5_3_1_sb +0 x_5_3_2_sb +1 x_5_3_3_sb +0 p0_5_3 +0 p1_5_3 >= 0
+0 x_5_8_0 +0 x_5_8_1 +0 x_5_8_2 +0 x_5_8_3 +0 x_5_4_0_sb +0 x_5_4_1_sb +0 x_5_4_2_sb +0 x_5_4_3_sb -1 p0_5_4 -1 p1_5_4 >= -1
+0 x_5_8_0 +0 x_5_8_1 +0 x_5_8_2 +0 x_5_8_3 +0 x_5_4_0_sb +0 x_5_4_1_sb +0 x_5_4_2_sb -1 x_5_4_3_sb +1 p0_5_4 +1 p1_5_4 >= 0
+0 x_5_8_0 +0 x_5_8_1 +0 x_5_8_2 +0 x_5_8_3 +0 x_5_4_0_sb -1 x_5_4_1_sb +0 x_5_4_2_sb +0 x_5_4_3_sb +1 p0_5_4 +1 p1_5_4 >= 0
+0 x_5_8_0 +0 x_5_8_1 +0 x_5_8_2 +0 x_5_8_3 -1 x_5_4_0_sb +0 x_5_4_1_sb +0 x_5_4_2_sb +0 x_5_4_3_sb +1 p0_5_4 +1 p1_5_4 >= 0
+0 x_5_8_0 +0 x_5_8_1 +0 x_5_8_2 +0 x_5_8_3 +1 x_5_4_0_sb +1 x_5_4_1_sb +1 x_5_4_2_sb +1 x_5_4_3_sb +0 p0_5_4 -1 p1_5_4 >= 0
+0 x_5_8_0 +0 x_5_8_1 +0 x_5_8_2 -1 x_5_8_3 +1 x_5_4_0_sb +1 x_5_4_1_sb +0 x_5_4_2_sb +1 x_5_4_3_sb +0 p0_5_4 +1 p1_5_4 >= 0
-1 x_5_8_0 +0 x_5_8_1 -1 x_5_8_2 +0 x_5_8_3 +1 x_5_4_0_sb +0 x_5_4_1_sb +0 x_5_4_2_sb +1 x_5_4_3_sb +0 p0_5_4 -1 p1_5_4 >= -2
+1 x_5_8_0 +0 x_5_8_1 +1 x_5_8_2 +0 x_5_8_3 +1 x_5_4_0_sb +0 x_5_4_1_sb +1 x_5_4_2_sb +0 x_5_4_3_sb +0 p0_5_4 -1 p1_5_4 >= 0
+0 x_5_8_0 +0 x_5_8_1 +0 x_5_8_2 +1 x_5_8_3 +0 x_5_4_0_sb +1 x_5_4_1_sb -1 x_5_4_2_sb -1 x_5_4_3_sb +0 p0_5_4 -1 p1_5_4 >= -2
-1 x_5_8_0 +0 x_5_8_1 +0 x_5_8_2 -1 x_5_8_3 -1 x_5_4_0_sb +0 x_5_4_1_sb +0 x_5_4_2_sb +1 x_5_4_3_sb +0 p0_5_4 -1 p1_5_4 >= -3
+0 x_5_8_0 +0 x_5_8_1 +0 x_5_8_2 +1 x_5_8_3 -1 x_5_4_0_sb -1 x_5_4_1_sb -1 x_5_4_2_sb +0 x_5_4_3_sb +0 p0_5_4 -1 p1_5_4 >= -3
+1 x_5_8_0 +1 x_5_8_1 +0 x_5_8_2 +1 x_5_8_3 +0 x_5_4_0_sb +0 x_5_4_1_sb +0 x_5_4_2_sb +0 x_5_4_3_sb -1 p0_5_4 +0 p1_5_4 >= 0
+0 x_5_8_0 +0 x_5_8_1 +1 x_5_8_2 +1 x_5_8_3 +0 x_5_4_0_sb -1 x_5_4_1_sb +1 x_5_4_2_sb +0 x_5_4_3_sb +0 p0_5_4 -1 p1_5_4 >= -1
+0 x_5_8_0 +1 x_5_8_1 +0 x_5_8_2 -1 x_5_8_3 -1 x_5_4_0_sb +0 x_5_4_1_sb -1 x_5_4_2_sb +0 x_5_4_3_sb +0 p0_5_4 -1 p1_5_4 >= -3
+0 x_5_8_0 +1 x_5_8_1 +1 x_5_8_2 +0 x_5_8_3 +0 x_5_4_0_sb +0 x_5_4_1_sb +1 x_5_4_2_sb -1 x_5_4_3_sb +0 p0_5_4 -1 p1_5_4 >= -1
-1 x_5_8_0 +0 x_5_8_1 -1 x_5_8_2 +0 x_5_8_3 -1 x_5_4_0_sb +0 x_5_4_1_sb +1 x_5_4_2_sb +0 x_5_4_3_sb +0 p0_5_4 -1 p1_5_4 >= -3
+0 x_5_8_0 -1 x_5_8_1 -1 x_5_8_2 +0 x_5_8_3 +0 x_5_4_0_sb +1 x_5_4_1_sb +0 x_5_4_2_sb +1 x_5_4_3_sb +0 p0_5_4 -1 p1_5_4 >= -2
+0 x_5_8_0 -1 x_5_8_1 +0 x_5_8_2 +0 x_5_8_3 +1 x_5_4_0_sb +1 x_5_4_1_sb +0 x_5_4_2_sb +1 x_5_4_3_sb +0 p0_5_4 +1 p1_5_4 >= 0
-1 x_5_8_0 -1 x_5_8_1 +0 x_5_8_2 +1 x_5_8_3 +0 x_5_4_0_sb +1 x_5_4_1_sb +0 x_5_4_2_sb +1 x_5_4_3_sb +0 p0_5_4 -1 p1_5_4 >= -2
+0 x_5_8_0 -1 x_5_8_1 +0 x_5_8_2 +0 x_5_8_3 +1 x_5_4_0_sb +0 x_5_4_1_sb +1 x_5_4_2_sb +1 x_5_4_3_sb +0 p0_5_4 -1 p1_5_4 >= -1
-1 x_5_8_0 +0 x_5_8_1 -1 x_5_8_2 +0 x_5_8_3 +1 x_5_4_0_sb +1 x_5_4_1_sb +0 x_5_4_2_sb +0 x_5_4_3_sb +0 p0_5_4 -1 p1_5_4 >= -2
+0 x_5_8_0 +1 x_5_8_1 -1 x_5_8_2 -1 x_5_8_3 +0 x_5_4_0_sb +0 x_5_4_1_sb +0 x_5_4_2_sb +1 x_5_4_3_sb +0 p0_5_4 -1 p1_5_4 >= -2
-1 x_5_8_0 -1 x_5_8_1 +0 x_5_8_2 -1 x_5_8_3 +0 x_5_4_0_sb +1 x_5_4_1_sb +0 x_5_4_2_sb -1 x_5_4_3_sb +0 p0_5_4 -1 p1_5_4 >= -4
-1 x_5_8_0 +1 x_5_8_1 +0 x_5_8_2 +1 x_5_8_3 +0 x_5_4_0_sb +1 x_5_4_1_sb +0 x_5_4_2_sb +1 x_5_4_3_sb +0 p0_5_4 +1 p1_5_4 >= 0
+0 x_5_8_0 +0 x_5_8_1 +0 x_5_8_2 +0 x_5_8_3 +1 x_5_4_0_sb -1 x_5_4_1_sb +0 x_5_4_2_sb -1 x_5_4_3_sb +0 p0_5_4 +1 p1_5_4 >= -1
+1 x_5_8_0 +0 x_5_8_1 +1 x_5_8_2 +0 x_5_8_3 +1 x_5_4_0_sb -1 x_5_4_1_sb +0 x_5_4_2_sb +0 x_5_4_3_sb +0 p0_5_4 -1 p1_5_4 >= -1
+0 x_5_8_0 +1 x_5_8_1 +0 x_5_8_2 +1 x_5_8_3 +0 x_5_4_0_sb -1 x_5_4_1_sb -1 x_5_4_2_sb +0 x_5_4_3_sb +0 p0_5_4 -1 p1_5_4 >= -2
+1 x_5_8_0 -1 x_5_8_1 +0 x_5_8_2 -1 x_5_8_3 +0 x_5_4_0_sb +0 x_5_4_1_sb +1 x_5_4_2_sb +0 x_5_4_3_sb +0 p0_5_4 +0 p1_5_4 >= -1
+1 x_5_8_0 -1 x_5_8_1 -1 x_5_8_2 +0 x_5_8_3 +0 x_5_4_0_sb +0 x_5_4_1_sb +1 x_5_4_2_sb -1 x_5_4_3_sb +0 p0_5_4 -1 p1_5_4 >= -3
+1 x_5_8_0 -1 x_5_8_1 +0 x_5_8_2 -1 x_5_8_3 +0 x_5_4_0_sb +0 x_5_4_1_sb +0 x_5_4_2_sb +0 x_5_4_3_sb +0 p0_5_4 +1 p1_5_4 >= -1
+1 x_5_8_0 +0 x_5_8_1 +0 x_5_8_2 +0 x_5_8_3 -1 x_5_4_0_sb +1 x_5_4_1_sb +0 x_5_4_2_sb -1 x_5_4_3_sb +0 p0_5_4 +1 p1_5_4 >= -1
+1 x_5_8_0 +0 x_5_8_1 +0 x_5_8_2 +0 x_5_8_3 -1 x_5_4_0_sb -1 x_5_4_1_sb +0 x_5_4_2_sb +1 x_5_4_3_sb +0 p0_5_4 +1 p1_5_4 >= -1
-1 x_5_8_0 -1 x_5_8_1 +0 x_5_8_2 +1 x_5_8_3 +1 x_5_4_0_sb +0 x_5_4_1_sb +0 x_5_4_2_sb +0 x_5_4_3_sb +0 p0_5_4 +1 p1_5_4 >= -1
-1 x_5_8_0 +1 x_5_8_1 +0 x_5_8_2 -1 x_5_8_3 +1 x_5_4_0_sb +0 x_5_4_1_sb +0 x_5_4_2_sb +0 x_5_4_3_sb +0 p0_5_4 +1 p1_5_4 >= -1
+0 x_5_8_0 -1 x_5_8_1 +0 x_5_8_2 -1 x_5_8_3 +0 x_5_4_0_sb -1 x_5_4_1_sb +0 x_5_4_2_sb -1 x_5_4_3_sb +0 p0_5_4 +1 p1_5_4 >= -3
+1 x_5_8_0 +1 x_5_8_1 +0 x_5_8_2 +1 x_5_8_3 +0 x_5_4_0_sb +0 x_5_4_1_sb -1 x_5_4_2_sb +0 x_5_4_3_sb +0 p0_5_4 +0 p1_5_4 >= 0
-1 x_5_8_0 +0 x_5_8_1 +1 x_5_8_2 -1 x_5_8_3 +0 x_5_4_0_sb -1 x_5_4_1_sb -1 x_5_4_2_sb +0 x_5_4_3_sb +0 p0_5_4 -1 p1_5_4 >= -4
+1 x_5_8_0 +1 x_5_8_1 +0 x_5_8_2 -1 x_5_8_3 +1 x_5_4_0_sb +1 x_5_4_1_sb +0 x_5_4_2_sb -1 x_5_4_3_sb +0 p0_5_4 -1 p1_5_4 >= -2
+1 x_5_8_0 +0 x_5_8_1 +1 x_5_8_2 +0 x_5_8_3 +0 x_5_4_0_sb +1 x_5_4_1_sb +1 x_5_4_2_sb +1 x_5_4_3_sb +0 p0_5_4 -1 p1_5_4 >= 0
+1 x_5_8_0 +0 x_5_8_1 -1 x_5_8_2 -1 x_5_8_3 -1 x_5_4_0_sb -1 x_5_4_1_sb +0 x_5_4_2_sb -1 x_5_4_3_sb +0 p0_5_4 -1 p1_5_4 >= -5
+0 x_5_8_0 +0 x_5_8_1 +1 x_5_8_2 +1 x_5_8_3 -1 x_5_4_0_sb +0 x_5_4_1_sb -1 x_5_4_2_sb +0 x_5_4_3_sb +0 p0_5_4 -1 p1_5_4 >= -2
+0 x_5_8_0 +0 x_5_8_1 +1 x_5_8_2 +0 x_5_8_3 +1 x_5_4_0_sb -1 x_5_4_1_sb +0 x_5_4_2_sb -1 x_5_4_3_sb +0 p0_5_4 +0 p1_5_4 >= -1
+0 x_5_8_0 -1 x_5_8_1 +0 x_5_8_2 -1 x_5_8_3 +0 x_5_4_0_sb +1 x_5_4_1_sb +0 x_5_4_2_sb +1 x_5_4_3_sb +0 p0_5_4 +1 p1_5_4 >= -1
+0 x_5_8_0 +1 x_5_8_1 +0 x_5_8_2 +1 x_5_8_3 +0 x_5_4_0_sb -1 x_5_4_1_sb +0 x_5_4_2_sb -1 x_5_4_3_sb +0 p0_5_4 +1 p1_5_4 >= -1
+1 x_5_8_0 -1 x_5_8_1 +1 x_5_8_2 -1 x_5_8_3 +1 x_5_4_0_sb +0 x_5_4_1_sb +0 x_5_4_2_sb +0 x_5_4_3_sb +0 p0_5_4 +0 p1_5_4 >= -1
+1 x_5_8_0 +0 x_5_8_1 +0 x_5_8_2 +0 x_5_8_3 +1 x_5_4_0_sb -1 x_5_4_1_sb +1 x_5_4_2_sb -1 x_5_4_3_sb +0 p0_5_4 +0 p1_5_4 >= -1
+0 x_5_8_0 -1 x_5_8_1 +0 x_5_8_2 -1 x_5_8_3 +1 x_5_4_0_sb -1 x_5_4_1_sb -1 x_5_4_2_sb -1 x_5_4_3_sb +0 p0_5_4 +0 p1_5_4 >= -4
+1 x_5_8_0 +0 x_5_8_1 +0 x_5_8_2 +1 x_5_8_3 +0 x_5_4_0_sb -1 x_5_4_1_sb -1 x_5_4_2_sb +1 x_5_4_3_sb +0 p0_5_4 -1 p1_5_4 >= -2
+0 x_5_8_0 +0 x_5_8_1 -1 x_5_8_2 +1 x_5_8_3 -1 x_5_4_0_sb +1 x_5_4_1_sb +0 x_5_4_2_sb -1 x_5_4_3_sb +0 p0_5_4 -1 p1_5_4 >= -3
+0 x_5_8_0 +1 x_5_8_1 +0 x_5_8_2 +1 x_5_8_3 -1 x_5_4_0_sb -1 x_5_4_1_sb +0 x_5_4_2_sb +1 x_5_4_3_sb +0 p0_5_4 -1 p1_5_4 >= -2
-1 x_5_8_0 +1 x_5_8_1 +0 x_5_8_2 -1 x_5_8_3 +0 x_5_4_0_sb +0 x_5_4_1_sb -1 x_5_4_2_sb +1 x_5_4_3_sb +0 p0_5_4 -1 p1_5_4 >= -3
-1 x_5_8_0 +0 x_5_8_1 +0 x_5_8_2 +0 x_5_8_3 -1 x_5_4_0_sb +1 x_5_4_1_sb +0 x_5_4_2_sb -1 x_5_4_3_sb +0 p0_5_4 -1 p1_5_4 >= -3
+0 x_5_8_0 +0 x_5_8_1 -1 x_5_8_2 +0 x_5_8_3 +1 x_5_4_0_sb +1 x_5_4_1_sb +0 x_5_4_2_sb +1 x_5_4_3_sb +0 p0_5_4 +0 p1_5_4 >= 0
+0 x_5_10_0 +0 x_5_10_1 +0 x_5_10_2 +0 x_5_10_3 +0 x_5_5_0_sb +0 x_5_5_1_sb +0 x_5_5_2_sb +0 x_5_5_3_sb -1 p0_5_5 -1 p1_5_5 >= -1
+0 x_5_10_0 +0 x_5_10_1 +0 x_5_10_2 +0 x_5_10_3 +0 x_5_5_0_sb +0 x_5_5_1_sb +0 x_5_5_2_sb -1 x_5_5_3_sb +1 p0_5_5 +1 p1_5_5 >= 0
+0 x_5_10_0 +0 x_5_10_1 +0 x_5_10_2 +0 x_5_10_3 +0 x_5_5_0_sb -1 x_5_5_1_sb +0 x_5_5_2_sb +0 x_5_5_3_sb +1 p0_5_5 +1 p1_5_5 >= 0
+0 x_5_10_0 +0 x_5_10_1 +0 x_5_10_2 +0 x_5_10_3 -1 x_5_5_0_sb +0 x_5_5_1_sb +0 x_5_5_2_sb +0 x_5_5_3_sb +1 p0_5_5 +1 p1_5_5 >= 0
+0 x_5_10_0 +0 x_5_10_1 +0 x_5_10_2 +0 x_5_10_3 +1 x_5_5_0_sb +1 x_5_5_1_sb +1 x_5_5_2_sb +1 x_5_5_3_sb +0 p0_5_5 -1 p1_5_5 >= 0
+0 x_5_10_0 +0 x_5_10_1 +0 x_5_10_2 -1 x_5_10_3 +1 x_5_5_0_sb +1 x_5_5_1_sb +0 x_5_5_2_sb +1 x_5_5_3_sb +0 p0_5_5 +1 p1_5_5 >= 0
-1 x_5_10_0 +0 x_5_10_1 -1 x_5_10_2 +0 x_5_10_3 +1 x_5_5_0_sb +0 x_5_5_1_sb +0 x_5_5_2_sb +1 x_5_5_3_sb +0 p0_5_5 -1 p1_5_5 >= -2
+1 x_5_10_0 +0 x_5_10_1 +1 x_5_10_2 +0 x_5_10_3 +1 x_5_5_0_sb +0 x_5_5_1_sb +1 x_5_5_2_sb +0 x_5_5_3_sb +0 p0_5_5 -1 p1_5_5 >= 0
+0 x_5_10_0 +0 x_5_10_1 +0 x_5_10_2 +1 x_5_10_3 +0 x_5_5_0_sb +1 x_5_5_1_sb -1 x_5_5_2_sb -1 x_5_5_3_sb +0 p0_5_5 -1 p1_5_5 >= -2
-1 x_5_10_0 +0 x_5_10_1 +0 x_5_10_2 -1 x_5_10_3 -1 x_5_5_0_sb +0 x_5_5_1_sb +0 x_5_5_2_sb +1 x_5_5_3_sb +0 p0_5_5 -1 p1_5_5 >= -3
+0 x_5_10_0 +0 x_5_10_1 +0 x_5_10_2 +1 x_5_10_3 -1 x_5_5_0_sb -1 x_5_5_1_sb -1 x_5_5_2_sb +0 x_5_5_3_sb +0 p0_5_5 -1 p1_5_5 >= -3
+1 x_5_10_0 +1 x_5_10_1 +0 x_5_10_2 +1 x_5_10_3 +0 x_5_5_0_sb +0 x_5_5_1_sb +0 x_5_5_2_sb +0 x_5_5_3_sb -1 p0_5_5 +0 p1_5_5 >= 0
+0 x_5_10_0 +0 x_5_10_1 +1 x_5_10_2 +1 x_5_10_3 +0 x_5_5_0_sb -1 x_5_5_1_sb +1 x_5_5_2_sb +0 x_5_5_3_sb +0 p0_5_5 -1 p1_5_5 >= -1
+0 x_5_10_0 +1 x_5_10_1 +0 x_5_10_2 -1 x_5_10_3 -1 x_5_5_0_sb +0 x_5_5_1_sb -1 x_5_5_2_sb +0 x_5_5_3_sb +0 p0_5_5 -1 p1_5_5 >= -3
+0 x_5_10_0 +1 x_5_10_1 +1 x_5_10_2 +0 x_5_10_3 +0 x_5_5_0_sb +0 x_5_5_1_sb +1 x_5_5_2_sb -1 x_5_5_3_sb +0 p0_5_5 -1 p1_5_5 >= -1
-1 x_5_10_0 +0 x_5_10_1 -1 x_5_10_2 +0 x_5_10_3 -1 x_5_5_0_sb +0 x_5_5_1_sb +1 x_5_5_2_sb +0 x_5_5_3_sb +0 p0_5_5 -1 p1_5_5 >= -3
+0 x_5_10_0 -1 x_5_10_1 -1 x_5_10_2 +0 x_5_10_3 +0 x_5_5_0_sb +1 x_5_5_1_sb +0 x_5_5_2_sb +1 x_5_5_3_sb +0 p0_5_5 -1 p1_5_5 >= -2
+0 x_5_10_0 -1 x_5_10_1 +0 x_5_10_2 +0 x_5_10_3 +1 x_5_5_0_sb +1 x_5_5_1_sb +0 x_5_5_2_sb +1 x_5_5_3_sb +0 p0_5_5 +1 p1_5_5 >= 0
-1 x_5_10_0 -1 x_5_10_1 +0 x_5_10_2 +1 x_5_10_3 +0 x_5_5_0_sb +1 x_5_5_1_sb +0 x_5_5_2_sb +1 x_5_5_3_sb +0 p0_5_5 -1 p1_5_5 >= -2
+0 x_5_10_0 -1 x_5_10_1 +0 x_5_10_2 +0 x_5_10_3 +1 x_5_5_0_sb +0 x_5_5_1_sb +1 x_5_5_2_sb +1 x_5_5_3_sb +0 p0_5_5 -1 p1_5_5 >= -1
-1 x_5_10_0 +0 x_5_10_1 -1 x_5_10_2 +0 x_5_10_3 +1 x_5_5_0_sb +1 x_5_5_1_sb +0 x_5_5_2_sb +0 x_5_5_3_sb +0 p0_5_5 -1 p1_5_5 >= -2
+0 x_5_10_0 +1 x_5_10_1 -1 x_5_10_2 -1 x_5_10_3 +0 x_5_5_0_sb +0 x_5_5_1_sb +0 x_5_5_2_sb +1 x_5_5_3_sb +0 p0_5_5 -1 p1_5_5 >= -2
-1 x_5_10_0 -1 x_5_10_1 +0 x_5_10_2 -1 x_5_10_3 +0 x_5_5_0_sb +1 x_5_5_1_sb +0 x_5_5_2_sb -1 x_5_5_3_sb +0 p0_5_5 -1 p1_5_5 >= -4
-1 x_5_10_0 +1 x_5_10_1 +0 x_5_10_2 +1 x_5_10_3 +0 x_5_5_0_sb +1 x_5_5_1_sb +0 x_5_5_2_sb +1 x_5_5_3_sb +0 p0_5_5 +1 p1_5_5 >= 0
+0 x_5_10_0 +0 x_5_10_1 +0 x_5_10_2 +0 x_5_10_3 +1 x_5_5_0_sb -1 x_5_5_1_sb +0 x_5_5_2_sb -1 x_5_5_3_sb +0 p0_5_5 +1 p1_5_5 >= -1
+1 x_5_10_0 +0 x_5_10_1 +1 x_5_10_2 +0 x_5_10_3 +1 x_5_5_0_sb -1 x_5_5_1_sb +0 x_5_5_2_sb +0 x_5_5_3_sb +0 p0_5_5 -1 p1_5_5 >= -1
+0 x_5_10_0 +1 x_5_10_1 +0 x_5_10_2 +1 x_5_10_3 +0 x_5_5_0_sb -1 x_5_5_1_sb -1 x_5_5_2_sb +0 x_5_5_3_sb +0 p0_5_5 -1 p1_5_5 >= -2
+1 x_5_10_0 -1 x_5_10_1 +0 x_5_10_2 -1 x_5_10_3 +0 x_5_5_0_sb +0 x_5_5_1_sb +1 x_5_5_2_sb +0 x_5_5_3_sb +0 p0_5_5 +0 p1_5_5 >= -1
+1 x_5_10_0 -1 x_5_10_1 -1 x_5_10_2 +0 x_5_10_3 +0 x_5_5_0_sb +0 x_5_5_1_sb +1 x_5_5_2_sb -1 x_5_5_3_sb +0 p0_5_5 -1 p1_5_5 >= -3
+1 x_5_10_0 -1 x_5_10_1 +0 x_5_10_2 -1 x_5_10_3 +0 x_5_5_0_sb +0 x_5_5_1_sb +0 x_5_5_2_sb +0 x_5_5_3_sb +0 p0_5_5 +1 p1_5_5 >= -1
+1 x_5_10_0 +0 x_5_10_1 +0 x_5_10_2 +0 x_5_10_3 -1 x_5_5_0_sb +1 x_5_5_1_sb +0 x_5_5_2_sb -1 x_5_5_3_sb +0 p0_5_5 +1 p1_5_5 >= -1
+1 x_5_10_0 +0 x_5_10_1 +0 x_5_10_2 +0 x_5_10_3 -1 x_5_5_0_sb -1 x_5_5_1_sb +0 x_5_5_2_sb +1 x_5_5_3_sb +0 p0_5_5 +1 p1_5_5 >= -1
-1 x_5_10_0 -1 x_5_10_1 +0 x_5_10_2 +1 x_5_10_3 +1 x_5_5_0_sb +0 x_5_5_1_sb +0 x_5_5_2_sb +0 x_5_5_3_sb +0 p0_5_5 +1 p1_5_5 >= -1
-1 x_5_10_0 +1 x_5_10_1 +0 x_5_10_2 -1 x_5_10_3 +1 x_5_5_0_sb +0 x_5_5_1_sb +0 x_5_5_2_sb +0 x_5_5_3_sb +0 p0_5_5 +1 p1_5_5 >= -1
+0 x_5_10_0 -1 x_5_10_1 +0 x_5_10_2 -1 x_5_10_3 +0 x_5_5_0_sb -1 x_5_5_1_sb +0 x_5_5_2_sb -1 x_5_5_3_sb +0 p0_5_5 +1 p1_5_5 >= -3
+1 x_5_10_0 +1 x_5_10_1 +0 x_5_10_2 +1 x_5_10_3 +0 x_5_5_0_sb +0 x_5_5_1_sb -1 x_5_5_2_sb +0 x_5_5_3_sb +0 p0_5_5 +0 p1_5_5 >= 0
-1 x_5_10_0 +0 x_5_10_1 +1 x_5_10_2 -1 x_5_10_3 +0 x_5_5_0_sb -1 x_5_5_1_sb -1 x_5_5_2_sb +0 x_5_5_3_sb +0 p0_5_5 -1 p1_5_5 >= -4
+1 x_5_10_0 +1 x_5_10_1 +0 x_5_10_2 -1 x_5_10_3 +1 x_5_5_0_sb +1 x_5_5_1_sb +0 x_5_5_2_sb -1 x_5_5_3_sb +0 p0_5_5 -1 p1_5_5 >= -2
+1 x_5_10_0 +0 x_5_10_1 +1 x_5_10_2 +0 x_5_10_3 +0 x_5_5_0_sb +1 x_5_5_1_sb +1 x_5_5_2_sb +1 x_5_5_3_sb +0 p0_5_5 -1 p1_5_5 >= 0
+1 x_5_10_0 +0 x_5_10_1 -1 x_5_10_2 -1 x_5_10_3 -1 x_5_5_0_sb -1 x_5_5_1_sb +0 x_5_5_2_sb -1 x_5_5_3_sb +0 p0_5_5 -1 p1_5_5 >= -5
+0 x_5_10_0 +0 x_5_10_1 +1 x_5_10_2 +1 x_5_10_3 -1 x_5_5_0_sb +0 x_5_5_1_sb -1 x_5_5_2_sb +0 x_5_5_3_sb +0 p0_5_5 -1 p1_5_5 >= -2
+0 x_5_10_0 +0 x_5_10_1 +1 x_5_10_2 +0 x_5_10_3 +1 x_5_5_0_sb -1 x_5_5_1_sb +0 x_5_5_2_sb -1 x_5_5_3_sb +0 p0_5_5 +0 p1_5_5 >= -1
+0 x_5_10_0 -1 x_5_10_1 +0 x_5_10_2 -1 x_5_10_3 +0 x_5_5_0_sb +1 x_5_5_1_sb +0 x_5_5_2_sb +1 x_5_5_3_sb +0 p0_5_5 +1 p1_5_5 >= -1
+0 x_5_10_0 +1 x_5_10_1 +0 x_5_10_2 +1 x_5_10_3 +0 x_5_5_0_sb -1 x_5_5_1_sb +0 x_5_5_2_sb -1 x_5_5_3_sb +0 p0_5_5 +1 p1_5_5 >= -1
+1 x_5_10_0 -1 x_5_10_1 +1 x_5_10_2 -1 x_5_10_3 +1 x_5_5_0_sb +0 x_5_5_1_sb +0 x_5_5_2_sb +0 x_5_5_3_sb +0 p0_5_5 +0 p1_5_5 >= -1
+1 x_5_10_0 +0 x_5_10_1 +0 x_5_10_2 +0 x_5_10_3 +1 x_5_5_0_sb -1 x_5_5_1_sb +1 x_5_5_2_sb -1 x_5_5_3_sb +0 p0_5_5 +0 p1_5_5 >= -1
+0 x_5_10_0 -1 x_5_10_1 +0 x_5_10_2 -1 x_5_10_3 +1 x_5_5_0_sb -1 x_5_5_1_sb -1 x_5_5_2_sb -1 x_5_5_3_sb +0 p0_5_5 +0 p1_5_5 >= -4
+1 x_5_10_0 +0 x_5_10_1 +0 x_5_10_2 +1 x_5_10_3 +0 x_5_5_0_sb -1 x_5_5_1_sb -1 x_5_5_2_sb +1 x_5_5_3_sb +0 p0_5_5 -1 p1_5_5 >= -2
+0 x_5_10_0 +0 x_5_10_1 -1 x_5_10_2 +1 x_5_10_3 -1 x_5_5_0_sb +1 x_5_5_1_sb +0 x_5_5_2_sb -1 x_5_5_3_sb +0 p0_5_5 -1 p1_5_5 >= -3
+0 x_5_10_0 +1 x_5_10_1 +0 x_5_10_2 +1 x_5_10_3 -1 x_5_5_0_sb -1 x_5_5_1_sb +0 x_5_5_2_sb +1 x_5_5_3_sb +0 p0_5_5 -1 p1_5_5 >= -2
-1 x_5_10_0 +1 x_5_10_1 +0 x_5_10_2 -1 x_5_10_3 +0 x_5_5_0_sb +0 x_5_5_1_sb -1 x_5_5_2_sb +1 x_5_5_3_sb +0 p0_5_5 -1 p1_5_5 >= -3
-1 x_5_10_0 +0 x_5_10_1 +0 x_5_10_2 +0 x_5_10_3 -1 x_5_5_0_sb +1 x_5_5_1_sb +0 x_5_5_2_sb -1 x_5_5_3_sb +0 p0_5_5 -1 p1_5_5 >= -3
+0 x_5_10_0 +0 x_5_10_1 -1 x_5_10_2 +0 x_5_10_3 +1 x_5_5_0_sb +1 x_5_5_1_sb +0 x_5_5_2_sb +1 x_5_5_3_sb +0 p0_5_5 +0 p1_5_5 >= 0
+0 x_5_12_0 +0 x_5_12_1 +0 x_5_12_2 +0 x_5_12_3 +0 x_5_6_0_sb +0 x_5_6_1_sb +0 x_5_6_2_sb +0 x_5_6_3_sb -1 p0_5_6 -1 p1_5_6 >= -1
+0 x_5_12_0 +0 x_5_12_1 +0 x_5_12_2 +0 x_5_12_3 +0 x_5_6_0_sb +0 x_5_6_1_sb +0 x_5_6_2_sb -1 x_5_6_3_sb +1 p0_5_6 +1 p1_5_6 >= 0
+0 x_5_12_0 +0 x_5_12_1 +0 x_5_12_2 +0 x_5_12_3 +0 x_5_6_0_sb -1 x_5_6_1_sb +0 x_5_6_2_sb +0 x_5_6_3_sb +1 p0_5_6 +1 p1_5_6 >= 0
+0 x_5_12_0 +0 x_5_12_1 +0 x_5_12_2 +0 x_5_12_3 -1 x_5_6_0_sb +0 x_5_6_1_sb +0 x_5_6_2_sb +0 x_5_6_3_sb +1 p0_5_6 +1 p1_5_6 >= 0
+0 x_5_12_0 +0 x_5_12_1 +0 x_5_12_2 +0 x_5_12_3 +1 x_5_6_0_sb +1 x_5_6_1_sb +1 x_5_6_2_sb +1 x_5_6_3_sb +0 p0_5_6 -1 p1_5_6 >= 0
+0 x_5_12_0 +0 x_5_12_1 +0 x_5_12_2 -1 x_5_12_3 +1 x_5_6_0_sb +1 x_5_6_1_sb +0 x_5_6_2_sb +1 x_5_6_3_sb +0 p0_5_6 +1 p1_5_6 >= 0
-1 x_5_12_0 +0 x_5_12_1 -1 x_5_12_2 +0 x_5_12_3 +1 x_5_6_0_sb +0 x_5_6_1_sb +0 x_5_6_2_sb +1 x_5_6_3_sb +0 p0_5_6 -1 p1_5_6 >= -2
+1 x_5_12_0 +0 x_5_12_1 +1 x_5_12_2 +0 x_5_12_3 +1 x_5_6_0_sb +0 x_5_6_1_sb +1 x_5_6_2_sb +0 x_5_6_3_sb +0 p0_5_6 -1 p1_5_6 >= 0
+0 x_5_12_0 +0 x_5_12_1 +0 x_5_12_2 +1 x_5_12_3 +0 x_5_6_0_sb +1 x_5_6_1_sb -1 x_5_6_2_sb -1 x_5_6_3_sb +0 p0_5_6 -1 p1_5_6 >= -2
-1 x_5_12_0 +0 x_5_12_1 +0 x_5_12_2 -1 x_5_12_3 -1 x_5_6_0_sb +0 x_5_6_1_sb +0 x_5_6_2_sb +1 x_5_6_3_sb +0 p0_5_6 -1 p1_5_6 >= -3
+0 x_5_12_0 +0 x_5_12_1 +0 x_5_12_2 +1 x_5_12_3 -1 x_5_6_0_sb -1 x_5_6_1_sb -1 x_5_6_2_sb +0 x_5_6_3_sb +0 p0_5_6 -1 p1_5_6 >= -3
+1 x_5_12_0 +1 x_5_12_1 +0 x_5_12_2 +1 x_5_12_3 +0 x_5_6_0_sb +0 x_5_6_1_sb +0 x_5_6_2_sb +0 x_5_6_3_sb -1 p0_5_6 +0 p1_5_6 >= 0
+0 x_5_12_0 +0 x_5_12_1 +1 x_5_12_2 +1 x_5_12_3 +0 x_5_6_0_sb -1 x_5_6_1_sb +1 x_5_6_2_sb +0 x_5_6_3_sb +0 p0_5_6 -1 p1_5_6 >= -1
+0 x_5_12_0 +1 x_5_12_1 +0 x_5_12_2 -1 x_5_12_3 -1 x_5_6_0_sb +0 x_5_6_1_sb -1 x_5_6_2_sb +0 x_5_6_3_sb +0 p0_5_6 -1 p1_5_6 >= -3
+0 x_5_12_0 +1 x_5_12_1 +1 x_5_12_2 +0 x_5_12_3 +0 x_5_6_0_sb +0 x_5_6_1_sb +1 x_5_6_2_sb -1 x_5_6_3_sb +0 p0_5_6 -1 p1_5_6 >= -1
-1 x_5_12_0 +0 x_5_12_1 -1 x_5_12_2 +0 x_5_12_3 -1 x_5_6_0_sb +0 x_5_6_1_sb +1 x_5_6_2_sb +0 x_5_6_3_sb +0 p0_5_6 -1 p1_5_6 >= -3
+0 x_5_12_0 -1 x_5_12_1 -1 x_5_12_2 +0 x_5_12_3 +0 x_5_6_0_sb +1 x_5_6_1_sb +0 x_5_6_2_sb +1 x_5_6_3_sb +0 p0_5_6 -1 p1_5_6 >= -2
+0 x_5_12_0 -1 x_5_12_1 +0 x_5_12_2 +0 x_5_12_3 +1 x_5_6_0_sb +1 x_5_6_1_sb +0 x_5_6_2_sb +1 x_5_6_3_sb +0 p0_5_6 +1 p1_5_6 >= 0
-1 x_5_12_0 -1 x_5_12_1 +0 x_5_12_2 +1 x_5_12_3 +0 x_5_6_0_sb +1 x_5_6_1_sb +0 x_5_6_2_sb +1 x_5_6_3_sb +0 p0_5_6 -1 p1_5_6 >= -2
+0 x_5_12_0 -1 x_5_12_1 +0 x_5_12_2 +0 x_5_12_3 +1 x_5_6_0_sb +0 x_5_6_1_sb +1 x_5_6_2_sb +1 x_5_6_3_sb +0 p0_5_6 -1 p1_5_6 >= -1
-1 x_5_12_0 +0 x_5_12_1 -1 x_5_12_2 +0 x_5_12_3 +1 x_5_6_0_sb +1 x_5_6_1_sb +0 x_5_6_2_sb +0 x_5_6_3_sb +0 p0_5_6 -1 p1_5_6 >= -2
+0 x_5_12_0 +1 x_5_12_1 -1 x_5_12_2 -1 x_5_12_3 +0 x_5_6_0_sb +0 x_5_6_1_sb +0 x_5_6_2_sb +1 x_5_6_3_sb +0 p0_5_6 -1 p1_5_6 >= -2
-1 x_5_12_0 -1 x_5_12_1 +0 x_5_12_2 -1 x_5_12_3 +0 x_5_6_0_sb +1 x_5_6_1_sb +0 x_5_6_2_sb -1 x_5_6_3_sb +0 p0_5_6 -1 p1_5_6 >= -4
-1 x_5_12_0 +1 x_5_12_1 +0 x_5_12_2 +1 x_5_12_3 +0 x_5_6_0_sb +1 x_5_6_1_sb +0 x_5_6_2_sb +1 x_5_6_3_sb +0 p0_5_6 +1 p1_5_6 >= 0
+0 x_5_12_0 +0 x_5_12_1 +0 x_5_12_2 +0 x_5_12_3 +1 x_5_6_0_sb -1 x_5_6_1_sb +0 x_5_6_2_sb -1 x_5_6_3_sb +0 p0_5_6 +1 p1_5_6 >= -1
+1 x_5_12_0 +0 x_5_12_1 +1 x_5_12_2 +0 x_5_12_3 +1 x_5_6_0_sb -1 x_5_6_1_sb +0 x_5_6_2_sb +0 x_5_6_3_sb +0 p0_5_6 -1 p1_5_6 >= -1
+0 x_5_12_0 +1 x_5_12_1 +0 x_5_12_2 +1 x_5_12_3 +0 x_5_6_0_sb -1 x_5_6_1_sb -1 x_5_6_2_sb +0 x_5_6_3_sb +0 p0_5_6 -1 p1_5_6 >= -2
+1 x_5_12_0 -1 x_5_12_1 +0 x_5_12_2 -1 x_5_12_3 +0 x_5_6_0_sb +0 x_5_6_1_sb +1 x_5_6_2_sb +0 x_5_6_3_sb +0 p0_5_6 +0 p1_5_6 >= -1
+1 x_5_12_0 -1 x_5_12_1 -1 x_5_12_2 +0 x_5_12_3 +0 x_5_6_0_sb +0 x_5_6_1_sb +1 x_5_6_2_sb -1 x_5_6_3_sb +0 p0_5_6 -1 p1_5_6 >= -3
+1 x_5_12_0 -1 x_5_12_1 +0 x_5_12_2 -1 x_5_12_3 +0 x_5_6_0_sb +0 x_5_6_1_sb +0 x_5_6_2_sb +0 x_5_6_3_sb +0 p0_5_6 +1 p1_5_6 >= -1
+1 x_5_12_0 +0 x_5_12_1 +0 x_5_12_2 +0 x_5_12_3 -1 x_5_6_0_sb +1 x_5_6_1_sb +0 x_5_6_2_sb -1 x_5_6_3_sb +0 p0_5_6 +1 p1_5_6 >= -1
+1 x_5_12_0 +0 x_5_12_1 +0 x_5_12_2 +0 x_5_12_3 -1 x_5_6_0_sb -1 x_5_6_1_sb +0 x_5_6_2_sb +1 x_5_6_3_sb +0 p0_5_6 +1 p1_5_6 >= -1
-1 x_5_12_0 -1 x_5_12_1 +0 x_5_12_2 +1 x_5_12_3 +1 x_5_6_0_sb +0 x_5_6_1_sb +0 x_5_6_2_sb +0 x_5_6_3_sb +0 p0_5_6 +1 p1_5_6 >= -1
-1 x_5_12_0 +1 x_5_12_1 +0 x_5_12_2 -1 x_5_12_3 +1 x_5_6_0_sb +0 x_5_6_1_sb +0 x_5_6_2_sb +0 x_5_6_3_sb +0 p0_5_6 +1 p1_5_6 >= -1
+0 x_5_12_0 -1 x_5_12_1 +0 x_5_12_2 -1 x_5_12_3 +0 x_5_6_0_sb -1 x_5_6_1_sb +0 x_5_6_2_sb -1 x_5_6_3_sb +0 p0_5_6 +1 p1_5_6 >= -3
+1 x_5_12_0 +1 x_5_12_1 +0 x_5_12_2 +1 x_5_12_3 +0 x_5_6_0_sb +0 x_5_6_1_sb -1 x_5_6_2_sb +0 x_5_6_3_sb +0 p0_5_6 +0 p1_5_6 >= 0
-1 x_5_12_0 +0 x_5_12_1 +1 x_5_12_2 -1 x_5_12_3 +0 x_5_6_0_sb -1 x_5_6_1_sb -1 x_5_6_2_sb +0 x_5_6_3_sb +0 p0_5_6 -1 p1_5_6 >= -4
+1 x_5_12_0 +1 x_5_12_1 +0 x_5_12_2 -1 x_5_12_3 +1 x_5_6_0_sb +1 x_5_6_1_sb +0 x_5_6_2_sb -1 x_5_6_3_sb +0 p0_5_6 -1 p1_5_6 >= -2
+1 x_5_12_0 +0 x_5_12_1 +1 x_5_12_2 +0 x_5_12_3 +0 x_5_6_0_sb +1 x_5_6_1_sb +1 x_5_6_2_sb +1 x_5_6_3_sb +0 p0_5_6 -1 p1_5_6 >= 0
+1 x_5_12_0 +0 x_5_12_1 -1 x_5_12_2 -1 x_5_12_3 -1 x_5_6_0_sb -1 x_5_6_1_sb +0 x_5_6_2_sb -1 x_5_6_3_sb +0 p0_5_6 -1 p1_5_6 >= -5
+0 x_5_12_0 +0 x_5_12_1 +1 x_5_12_2 +1 x_5_12_3 -1 x_5_6_0_sb +0 x_5_6_1_sb -1 x_5_6_2_sb +0 x_5_6_3_sb +0 p0_5_6 -1 p1_5_6 >= -2
+0 x_5_12_0 +0 x_5_12_1 +1 x_5_12_2 +0 x_5_12_3 +1 x_5_6_0_sb -1 x_5_6_1_sb +0 x_5_6_2_sb -1 x_5_6_3_sb +0 p0_5_6 +0 p1_5_6 >= -1
+0 x_5_12_0 -1 x_5_12_1 +0 x_5_12_2 -1 x_5_12_3 +0 x_5_6_0_sb +1 x_5_6_1_sb +0 x_5_6_2_sb +1 x_5_6_3_sb +0 p0_5_6 +1 p1_5_6 >= -1
+0 x_5_12_0 +1 x_5_12_1 +0 x_5_12_2 +1 x_5_12_3 +0 x_5_6_0_sb -1 x_5_6_1_sb +0 x_5_6_2_sb -1 x_5_6_3_sb +0 p0_5_6 +1 p1_5_6 >= -1
+1 x_5_12_0 -1 x_5_12_1 +1 x_5_12_2 -1 x_5_12_3 +1 x_5_6_0_sb +0 x_5_6_1_sb +0 x_5_6_2_sb +0 x_5_6_3_sb +0 p0_5_6 +0 p1_5_6 >= -1
+1 x_5_12_0 +0 x_5_12_1 +0 x_5_12_2 +0 x_5_12_3 +1 x_5_6_0_sb -1 x_5_6_1_sb +1 x_5_6_2_sb -1 x_5_6_3_sb +0 p0_5_6 +0 p1_5_6 >= -1
+0 x_5_12_0 -1 x_5_12_1 +0 x_5_12_2 -1 x_5_12_3 +1 x_5_6_0_sb -1 x_5_6_1_sb -1 x_5_6_2_sb -1 x_5_6_3_sb +0 p0_5_6 +0 p1_5_6 >= -4
+1 x_5_12_0 +0 x_5_12_1 +0 x_5_12_2 +1 x_5_12_3 +0 x_5_6_0_sb -1 x_5_6_1_sb -1 x_5_6_2_sb +1 x_5_6_3_sb +0 p0_5_6 -1 p1_5_6 >= -2
+0 x_5_12_0 +0 x_5_12_1 -1 x_5_12_2 +1 x_5_12_3 -1 x_5_6_0_sb +1 x_5_6_1_sb +0 x_5_6_2_sb -1 x_5_6_3_sb +0 p0_5_6 -1 p1_5_6 >= -3
+0 x_5_12_0 +1 x_5_12_1 +0 x_5_12_2 +1 x_5_12_3 -1 x_5_6_0_sb -1 x_5_6_1_sb +0 x_5_6_2_sb +1 x_5_6_3_sb +0 p0_5_6 -1 p1_5_6 >= -2
-1 x_5_12_0 +1 x_5_12_1 +0 x_5_12_2 -1 x_5_12_3 +0 x_5_6_0_sb +0 x_5_6_1_sb -1 x_5_6_2_sb +1 x_5_6_3_sb +0 p0_5_6 -1 p1_5_6 >= -3
-1 x_5_12_0 +0 x_5_12_1 +0 x_5_12_2 +0 x_5_12_3 -1 x_5_6_0_sb +1 x_5_6_1_sb +0 x_5_6_2_sb -1 x_5_6_3_sb +0 p0_5_6 -1 p1_5_6 >= -3
+0 x_5_12_0 +0 x_5_12_1 -1 x_5_12_2 +0 x_5_12_3 +1 x_5_6_0_sb +1 x_5_6_1_sb +0 x_5_6_2_sb +1 x_5_6_3_sb +0 p0_5_6 +0 p1_5_6 >= 0
+0 x_5_14_0 +0 x_5_14_1 +0 x_5_14_2 +0 x_5_14_3 +0 x_5_7_0_sb +0 x_5_7_1_sb +0 x_5_7_2_sb +0 x_5_7_3_sb -1 p0_5_7 -1 p1_5_7 >= -1
+0 x_5_14_0 +0 x_5_14_1 +0 x_5_14_2 +0 x_5_14_3 +0 x_5_7_0_sb +0 x_5_7_1_sb +0 x_5_7_2_sb -1 x_5_7_3_sb +1 p0_5_7 +1 p1_5_7 >= 0
+0 x_5_14_0 +0 x_5_14_1 +0 x_5_14_2 +0 x_5_14_3 +0 x_5_7_0_sb -1 x_5_7_1_sb +0 x_5_7_2_sb +0 x_5_7_3_sb +1 p0_5_7 +1 p1_5_7 >= 0
+0 x_5_14_0 +0 x_5_14_1 +0 x_5_14_2 +0 x_5_14_3 -1 x_5_7_0_sb +0 x_5_7_1_sb +0 x_5_7_2_sb +0 x_5_7_3_sb +1 p0_5_7 +1 p1_5_7 >= 0
+0 x_5_14_0 +0 x_5_14_1 +0 x_5_14_2 +0 x_5_14_3 +1 x_5_7_0_sb +1 x_5_7_1_sb +1 x_5_7_2_sb +1 x_5_7_3_sb +0 p0_5_7 -1 p1_5_7 >= 0
+0 x_5_14_0 +0 x_5_14_1 +0 x_5_14_2 -1 x_5_14_3 +1 x_5_7_0_sb +1 x_5_7_1_sb +0 x_5_7_2_sb +1 x_5_7_3_sb +0 p0_5_7 +1 p1_5_7 >= 0
-1 x_5_14_0 +0 x_5_14_1 -1 x_5_14_2 +0 x_5_14_3 +1 x_5_7_0_sb +0 x_5_7_1_sb +0 x_5_7_2_sb +1 x_5_7_3_sb +0 p0_5_7 -1 p1_5_7 >= -2
+1 x_5_14_0 +0 x_5_14_1 +1 x_5_14_2 +0 x_5_14_3 +1 x_5_7_0_sb +0 x_5_7_1_sb +1 x_5_7_2_sb +0 x_5_7_3_sb +0 p0_5_7 -1 p1_5_7 >= 0
+0 x_5_14_0 +0 x_5_14_1 +0 x_5_14_2 +1 x_5_14_3 +0 x_5_7_0_sb +1 x_5_7_1_sb -1 x_5_7_2_sb -1 x_5_7_3_sb +0 p0_5_7 -1 p1_5_7 >= -2
-1 x_5_14_0 +0 x_5_14_1 +0 x_5_14_2 -1 x_5_14_3 -1 x_5_7_0_sb +0 x_5_7_1_sb +0 x_5_7_2_sb +1 x_5_7_3_sb +0 p0_5_7 -1 p1_5_7 >= -3
+0 x_5_14_0 +0 x_5_14_1 +0 x_5_14_2 +1 x_5_14_3 -1 x_5_7_0_sb -1 x_5_7_1_sb -1 x_5_7_2_sb +0 x_5_7_3_sb +0 p0_5_7 -1 p1_5_7 >= -3
+1 x_5_14_0 +1 x_5_14_1 +0 x_5_14_2 +1 x_5_14_3 +0 x_5_7_0_sb +0 x_5_7_1_sb +0 x_5_7_2_sb +0 x_5_7_3_sb -1 p0_5_7 +0 p1_5_7 >= 0
+0 x_5_14_0 +0 x_5_14_1 +1 x_5_14_2 +1 x_5_14_3 +0 x_5_7_0_sb -1 x_5_7_1_sb +1 x_5_7_2_sb +0 x_5_7_3_sb +0 p0_5_7 -1 p1_5_7 >= -1
+0 x_5_14_0 +1 x_5_14_1 +0 x_5_14_2 -1 x_5_14_3 -1 x_5_7_0_sb +0 x_5_7_1_sb -1 x_5_7_2_sb +0 x_5_7_3_sb +0 p0_5_7 -1 p1_5_7 >= -3
+0 x_5_14_0 +1 x_5_14_1 +1 x_5_14_2 +0 x_5_14_3 +0 x_5_7_0_sb +0 x_5_7_1_sb +1 x_5_7_2_sb -1 x_5_7_3_sb +0 p0_5_7 -1 p1_5_7 >= -1
-1 x_5_14_0 +0 x_5_14_1 -1 x_5_14_2 +0 x_5_14_3 -1 x_5_7_0_sb +0 x_5_7_1_sb +1 x_5_7_2_sb +0 x_5_7_3_sb +0 p0_5_7 -1 p1_5_7 >= -3
+0 x_5_14_0 -1 x_5_14_1 -1 x_5_14_2 +0 x_5_14_3 +0 x_5_7_0_sb +1 x_5_7_1_sb +0 x_5_7_2_sb +1 x_5_7_3_sb +0 p0_5_7 -1 p1_5_7 >= -2
+0 x_5_14_0 -1 x_5_14_1 +0 x_5_14_2 +0 x_5_14_3 +1 x_5_7_0_sb +1 x_5_7_1_sb +0 x_5_7_2_sb +1 x_5_7_3_sb +0 p0_5_7 +1 p1_5_7 >= 0
-1 x_5_14_0 -1 x_5_14_1 +0 x_5_14_2 +1 x_5_14_3 +0 x_5_7_0_sb +1 x_5_7_1_sb +0 x_5_7_2_sb +1 x_5_7_3_sb +0 p0_5_7 -1 p1_5_7 >= -2
+0 x_5_14_0 -1 x_5_14_1 +0 x_5_14_2 +0 x_5_14_3 +1 x_5_7_0_sb +0 x_5_7_1_sb +1 x_5_7_2_sb +1 x_5_7_3_sb +0 p0_5_7 -1 p1_5_7 >= -1
-1 x_5_14_0 +0 x_5_14_1 -1 x_5_14_2 +0 x_5_14_3 +1 x_5_7_0_sb +1 x_5_7_1_sb +0 x_5_7_2_sb +0 x_5_7_3_sb +0 p0_5_7 -1 p1_5_7 >= -2
+0 x_5_14_0 +1 x_5_14_1 -1 x_5_14_2 -1 x_5_14_3 +0 x_5_7_0_sb +0 x_5_7_1_sb +0 x_5_7_2_sb +1 x_5_7_3_sb +0 p0_5_7 -1 p1_5_7 >= -2
-1 x_5_14_0 -1 x_5_14_1 +0 x_5_14_2 -1 x_5_14_3 +0 x_5_7_0_sb +1 x_5_7_1_sb +0 x_5_7_2_sb -1 x_5_7_3_sb +0 p0_5_7 -1 p1_5_7 >= -4
-1 x_5_14_0 +1 x_5_14_1 +0 x_5_14_2 +1 x_5_14_3 +0 x_5_7_0_sb +1 x_5_7_1_sb +0 x_5_7_2_sb +1 x_5_7_3_sb +0 p0_5_7 +1 p1_5_7 >= 0
+0 x_5_14_0 +0 x_5_14_1 +0 x_5_14_2 +0 x_5_14_3 +1 x_5_7_0_sb -1 x_5_7_1_sb +0 x_5_7_2_sb -1 x_5_7_3_sb +0 p0_5_7 +1 p1_5_7 >= -1
+1 x_5_14_0 +0 x_5_14_1 +1 x_5_14_2 +0 x_5_14_3 +1 x_5_7_0_sb -1 x_5_7_1_sb +0 x_5_7_2_sb +0 x_5_7_3_sb +0 p0_5_7 -1 p1_5_7 >= -1
+0 x_5_14_0 +1 x_5_14_1 +0 x_5_14_2 +1 x_5_14_3 +0 x_5_7_0_sb -1 x_5_7_1_sb -1 x_5_7_2_sb +0 x_5_7_3_sb +0 p0_5_7 -1 p1_5_7 >= -2
+1 x_5_14_0 -1 x_5_14_1 +0 x_5_14_2 -1 x_5_14_3 +0 x_5_7_0_sb +0 x_5_7_1_sb +1 x_5_7_2_sb +0 x_5_7_3_sb +0 p0_5_7 +0 p1_5_7 >= -1
+1 x_5_14_0 -1 x_5_14_1 -1 x_5_14_2 +0 x_5_14_3 +0 x_5_7_0_sb +0 x_5_7_1_sb +1 x_5_7_2_sb -1 x_5_7_3_sb +0 p0_5_7 -1 p1_5_7 >= -3
+1 x_5_14_0 -1 x_5_14_1 +0 x_5_14_2 -1 x_5_14_3 +0 x_5_7_0_sb +0 x_5_7_1_sb +0 x_5_7_2_sb +0 x_5_7_3_sb +0 p0_5_7 +1 p1_5_7 >= -1
+1 x_5_14_0 +0 x_5_14_1 +0 x_5_14_2 +0 x_5_14_3 -1 x_5_7_0_sb +1 x_5_7_1_sb +0 x_5_7_2_sb -1 x_5_7_3_sb +0 p0_5_7 +1 p1_5_7 >= -1
+1 x_5_14_0 +0 x_5_14_1 +0 x_5_14_2 +0 x_5_14_3 -1 x_5_7_0_sb -1 x_5_7_1_sb +0 x_5_7_2_sb +1 x_5_7_3_sb +0 p0_5_7 +1 p1_5_7 >= -1
-1 x_5_14_0 -1 x_5_14_1 +0 x_5_14_2 +1 x_5_14_3 +1 x_5_7_0_sb +0 x_5_7_1_sb +0 x_5_7_2_sb +0 x_5_7_3_sb +0 p0_5_7 +1 p1_5_7 >= -1
-1 x_5_14_0 +1 x_5_14_1 +0 x_5_14_2 -1 x_5_14_3 +1 x_5_7_0_sb +0 x_5_7_1_sb +0 x_5_7_2_sb +0 x_5_7_3_sb +0 p0_5_7 +1 p1_5_7 >= -1
+0 x_5_14_0 -1 x_5_14_1 +0 x_5_14_2 -1 x_5_14_3 +0 x_5_7_0_sb -1 x_5_7_1_sb +0 x_5_7_2_sb -1 x_5_7_3_sb +0 p0_5_7 +1 p1_5_7 >= -3
+1 x_5_14_0 +1 x_5_14_1 +0 x_5_14_2 +1 x_5_14_3 +0 x_5_7_0_sb +0 x_5_7_1_sb -1 x_5_7_2_sb +0 x_5_7_3_sb +0 p0_5_7 +0 p1_5_7 >= 0
-1 x_5_14_0 +0 x_5_14_1 +1 x_5_14_2 -1 x_5_14_3 +0 x_5_7_0_sb -1 x_5_7_1_sb -1 x_5_7_2_sb +0 x_5_7_3_sb +0 p0_5_7 -1 p1_5_7 >= -4
+1 x_5_14_0 +1 x_5_14_1 +0 x_5_14_2 -1 x_5_14_3 +1 x_5_7_0_sb +1 x_5_7_1_sb +0 x_5_7_2_sb -1 x_5_7_3_sb +0 p0_5_7 -1 p1_5_7 >= -2
+1 x_5_14_0 +0 x_5_14_1 +1 x_5_14_2 +0 x_5_14_3 +0 x_5_7_0_sb +1 x_5_7_1_sb +1 x_5_7_2_sb +1 x_5_7_3_sb +0 p0_5_7 -1 p1_5_7 >= 0
+1 x_5_14_0 +0 x_5_14_1 -1 x_5_14_2 -1 x_5_14_3 -1 x_5_7_0_sb -1 x_5_7_1_sb +0 x_5_7_2_sb -1 x_5_7_3_sb +0 p0_5_7 -1 p1_5_7 >= -5
+0 x_5_14_0 +0 x_5_14_1 +1 x_5_14_2 +1 x_5_14_3 -1 x_5_7_0_sb +0 x_5_7_1_sb -1 x_5_7_2_sb +0 x_5_7_3_sb +0 p0_5_7 -1 p1_5_7 >= -2
+0 x_5_14_0 +0 x_5_14_1 +1 x_5_14_2 +0 x_5_14_3 +1 x_5_7_0_sb -1 x_5_7_1_sb +0 x_5_7_2_sb -1 x_5_7_3_sb +0 p0_5_7 +0 p1_5_7 >= -1
+0 x_5_14_0 -1 x_5_14_1 +0 x_5_14_2 -1 x_5_14_3 +0 x_5_7_0_sb +1 x_5_7_1_sb +0 x_5_7_2_sb +1 x_5_7_3_sb +0 p0_5_7 +1 p1_5_7 >= -1
+0 x_5_14_0 +1 x_5_14_1 +0 x_5_14_2 +1 x_5_14_3 +0 x_5_7_0_sb -1 x_5_7_1_sb +0 x_5_7_2_sb -1 x_5_7_3_sb +0 p0_5_7 +1 p1_5_7 >= -1
+1 x_5_14_0 -1 x_5_14_1 +1 x_5_14_2 -1 x_5_14_3 +1 x_5_7_0_sb +0 x_5_7_1_sb +0 x_5_7_2_sb +0 x_5_7_3_sb +0 p0_5_7 +0 p1_5_7 >= -1
+1 x_5_14_0 +0 x_5_14_1 +0 x_5_14_2 +0 x_5_14_3 +1 x_5_7_0_sb -1 x_5_7_1_sb +1 x_5_7_2_sb -1 x_5_7_3_sb +0 p0_5_7 +0 p1_5_7 >= -1
+0 x_5_14_0 -1 x_5_14_1 +0 x_5_14_2 -1 x_5_14_3 +1 x_5_7_0_sb -1 x_5_7_1_sb -1 x_5_7_2_sb -1 x_5_7_3_sb +0 p0_5_7 +0 p1_5_7 >= -4
+1 x_5_14_0 +0 x_5_14_1 +0 x_5_14_2 +1 x_5_14_3 +0 x_5_7_0_sb -1 x_5_7_1_sb -1 x_5_7_2_sb +1 x_5_7_3_sb +0 p0_5_7 -1 p1_5_7 >= -2
+0 x_5_14_0 +0 x_5_14_1 -1 x_5_14_2 +1 x_5_14_3 -1 x_5_7_0_sb +1 x_5_7_1_sb +0 x_5_7_2_sb -1 x_5_7_3_sb +0 p0_5_7 -1 p1_5_7 >= -3
+0 x_5_14_0 +1 x_5_14_1 +0 x_5_14_2 +1 x_5_14_3 -1 x_5_7_0_sb -1 x_5_7_1_sb +0 x_5_7_2_sb +1 x_5_7_3_sb +0 p0_5_7 -1 p1_5_7 >= -2
-1 x_5_14_0 +1 x_5_14_1 +0 x_5_14_2 -1 x_5_14_3 +0 x_5_7_0_sb +0 x_5_7_1_sb -1 x_5_7_2_sb +1 x_5_7_3_sb +0 p0_5_7 -1 p1_5_7 >= -3
-1 x_5_14_0 +0 x_5_14_1 +0 x_5_14_2 +0 x_5_14_3 -1 x_5_7_0_sb +1 x_5_7_1_sb +0 x_5_7_2_sb -1 x_5_7_3_sb +0 p0_5_7 -1 p1_5_7 >= -3
+0 x_5_14_0 +0 x_5_14_1 -1 x_5_14_2 +0 x_5_14_3 +1 x_5_7_0_sb +1 x_5_7_1_sb +0 x_5_7_2_sb +1 x_5_7_3_sb +0 p0_5_7 +0 p1_5_7 >= 0
+0 x_5_16_0 +0 x_5_16_1 +0 x_5_16_2 +0 x_5_16_3 +0 x_5_8_0_sb +0 x_5_8_1_sb +0 x_5_8_2_sb +0 x_5_8_3_sb -1 p0_5_8 -1 p1_5_8 >= -1
+0 x_5_16_0 +0 x_5_16_1 +0 x_5_16_2 +0 x_5_16_3 +0 x_5_8_0_sb +0 x_5_8_1_sb +0 x_5_8_2_sb -1 x_5_8_3_sb +1 p0_5_8 +1 p1_5_8 >= 0
+0 x_5_16_0 +0 x_5_16_1 +0 x_5_16_2 +0 x_5_16_3 +0 x_5_8_0_sb -1 x_5_8_1_sb +0 x_5_8_2_sb +0 x_5_8_3_sb +1 p0_5_8 +1 p1_5_8 >= 0
+0 x_5_16_0 +0 x_5_16_1 +0 x_5_16_2 +0 x_5_16_3 -1 x_5_8_0_sb +0 x_5_8_1_sb +0 x_5_8_2_sb +0 x_5_8_3_sb +1 p0_5_8 +1 p1_5_8 >= 0
+0 x_5_16_0 +0 x_5_16_1 +0 x_5_16_2 +0 x_5_16_3 +1 x_5_8_0_sb +1 x_5_8_1_sb +1 x_5_8_2_sb +1 x_5_8_3_sb +0 p0_5_8 -1 p1_5_8 >= 0
+0 x_5_16_0 +0 x_5_16_1 +0 x_5_16_2 -1 x_5_16_3 +1 x_5_8_0_sb +1 x_5_8_1_sb +0 x_5_8_2_sb +1 x_5_8_3_sb +0 p0_5_8 +1 p1_5_8 >= 0
-1 x_5_16_0 +0 x_5_16_1 -1 x_5_16_2 +0 x_5_16_3 +1 x_5_8_0_sb +0 x_5_8_1_sb +0 x_5_8_2_sb +1 x_5_8_3_sb +0 p0_5_8 -1 p1_5_8 >= -2
+1 x_5_16_0 +0 x_5_16_1 +1 x_5_16_2 +0 x_5_16_3 +1 x_5_8_0_sb +0 x_5_8_1_sb +1 x_5_8_2_sb +0 x_5_8_3_sb +0 p0_5_8 -1 p1_5_8 >= 0
+0 x_5_16_0 +0 x_5_16_1 +0 x_5_16_2 +1 x_5_16_3 +0 x_5_8_0_sb +1 x_5_8_1_sb -1 x_5_8_2_sb -1 x_5_8_3_sb +0 p0_5_8 -1 p1_5_8 >= -2
-1 x_5_16_0 +0 x_5_16_1 +0 x_5_16_2 -1 x_5_16_3 -1 x_5_8_0_sb +0 x_5_8_1_sb +0 x_5_8_2_sb +1 x_5_8_3_sb +0 p0_5_8 -1 p1_5_8 >= -3
+0 x_5_16_0 +0 x_5_16_1 +0 x_5_16_2 +1 x_5_16_3 -1 x_5_8_0_sb -1 x_5_8_1_sb -1 x_5_8_2_sb +0 x_5_8_3_sb +0 p0_5_8 -1 p1_5_8 >= -3
+1 x_5_16_0 +1 x_5_16_1 +0 x_5_16_2 +1 x_5_16_3 +0 x_5_8_0_sb +0 x_5_8_1_sb +0 x_5_8_2_sb +0 x_5_8_3_sb -1 p0_5_8 +0 p1_5_8 >= 0
+0 x_5_16_0 +0 x_5_16_1 +1 x_5_16_2 +1 x_5_16_3 +0 x_5_8_0_sb -1 x_5_8_1_sb +1 x_5_8_2_sb +0 x_5_8_3_sb +0 p0_5_8 -1 p1_5_8 >= -1
+0 x_5_16_0 +1 x_5_16_1 +0 x_5_16_2 -1 x_5_16_3 -1 x_5_8_0_sb +0 x_5_8_1_sb -1 x_5_8_2_sb +0 x_5_8_3_sb +0 p0_5_8 -1 p1_5_8 >= -3
+0 x_5_16_0 +1 x_5_16_1 +1 x_5_16_2 +0 x_5_16_3 +0 x_5_8_0_sb +0 x_5_8_1_sb +1 x_5_8_2_sb -1 x_5_8_3_sb +0 p0_5_8 -1 p1_5_8 >= -1
-1 x_5_16_0 +0 x_5_16_1 -1 x_5_16_2 +0 x_5_16_3 -1 x_5_8_0_sb +0 x_5_8_1_sb +1 x_5_8_2_sb +0 x_5_8_3_sb +0 p0_5_8 -1 p1_5_8 >= -3
+0 x_5_16_0 -1 x_5_16_1 -1 x_5_16_2 +0 x_5_16_3 +0 x_5_8_0_sb +1 x_5_8_1_sb +0 x_5_8_2_sb +1 x_5_8_3_sb +0 p0_5_8 -1 p1_5_8 >= -2
+0 x_5_16_0 -1 x_5_16_1 +0 x_5_16_2 +0 x_5_16_3 +1 x_5_8_0_sb +1 x_5_8_1_sb +0 x_5_8_2_sb +1 x_5_8_3_sb +0 p0_5_8 +1 p1_5_8 >= 0
-1 x_5_16_0 -1 x_5_16_1 +0 x_5_16_2 +1 x_5_16_3 +0 x_5_8_0_sb +1 x_5_8_1_sb +0 x_5_8_2_sb +1 x_5_8_3_sb +0 p0_5_8 -1 p1_5_8 >= -2
+0 x_5_16_0 -1 x_5_16_1 +0 x_5_16_2 +0 x_5_16_3 +1 x_5_8_0_sb +0 x_5_8_1_sb +1 x_5_8_2_sb +1 x_5_8_3_sb +0 p0_5_8 -1 p1_5_8 >= -1
-1 x_5_16_0 +0 x_5_16_1 -1 x_5_16_2 +0 x_5_16_3 +1 x_5_8_0_sb +1 x_5_8_1_sb +0 x_5_8_2_sb +0 x_5_8_3_sb +0 p0_5_8 -1 p1_5_8 >= -2
+0 x_5_16_0 +1 x_5_16_1 -1 x_5_16_2 -1 x_5_16_3 +0 x_5_8_0_sb +0 x_5_8_1_sb +0 x_5_8_2_sb +1 x_5_8_3_sb +0 p0_5_8 -1 p1_5_8 >= -2
-1 x_5_16_0 -1 x_5_16_1 +0 x_5_16_2 -1 x_5_16_3 +0 x_5_8_0_sb +1 x_5_8_1_sb +0 x_5_8_2_sb -1 x_5_8_3_sb +0 p0_5_8 -1 p1_5_8 >= -4
-1 x_5_16_0 +1 x_5_16_1 +0 x_5_16_2 +1 x_5_16_3 +0 x_5_8_0_sb +1 x_5_8_1_sb +0 x_5_8_2_sb +1 x_5_8_3_sb +0 p0_5_8 +1 p1_5_8 >= 0
+0 x_5_16_0 +0 x_5_16_1 +0 x_5_16_2 +0 x_5_16_3 +1 x_5_8_0_sb -1 x_5_8_1_sb +0 x_5_8_2_sb -1 x_5_8_3_sb +0 p0_5_8 +1 p1_5_8 >= -1
+1 x_5_16_0 +0 x_5_16_1 +1 x_5_16_2 +0 x_5_16_3 +1 x_5_8_0_sb -1 x_5_8_1_sb +0 x_5_8_2_sb +0 x_5_8_3_sb +0 p0_5_8 -1 p1_5_8 >= -1
+0 x_5_16_0 +1 x_5_16_1 +0 x_5_16_2 +1 x_5_16_3 +0 x_5_8_0_sb -1 x_5_8_1_sb -1 x_5_8_2_sb +0 x_5_8_3_sb +0 p0_5_8 -1 p1_5_8 >= -2
+1 x_5_16_0 -1 x_5_16_1 +0 x_5_16_2 -1 x_5_16_3 +0 x_5_8_0_sb +0 x_5_8_1_sb +1 x_5_8_2_sb +0 x_5_8_3_sb +0 p0_5_8 +0 p1_5_8 >= -1
+1 x_5_16_0 -1 x_5_16_1 -1 x_5_16_2 +0 x_5_16_3 +0 x_5_8_0_sb +0 x_5_8_1_sb +1 x_5_8_2_sb -1 x_5_8_3_sb +0 p0_5_8 -1 p1_5_8 >= -3
+1 x_5_16_0 -1 x_5_16_1 +0 x_5_16_2 -1 x_5_16_3 +0 x_5_8_0_sb +0 x_5_8_1_sb +0 x_5_8_2_sb +0 x_5_8_3_sb +0 p0_5_8 +1 p1_5_8 >= -1
+1 x_5_16_0 +0 x_5_16_1 +0 x_5_16_2 +0 x_5_16_3 -1 x_5_8_0_sb +1 x_5_8_1_sb +0 x_5_8_2_sb -1 x_5_8_3_sb +0 p0_5_8 +1 p1_5_8 >= -1
+1 x_5_16_0 +0 x_5_16_1 +0 x_5_16_2 +0 x_5_16_3 -1 x_5_8_0_sb -1 x_5_8_1_sb +0 x_5_8_2_sb +1 x_5_8_3_sb +0 p0_5_8 +1 p1_5_8 >= -1
-1 x_5_16_0 -1 x_5_16_1 +0 x_5_16_2 +1 x_5_16_3 +1 x_5_8_0_sb +0 x_5_8_1_sb +0 x_5_8_2_sb +0 x_5_8_3_sb +0 p0_5_8 +1 p1_5_8 >= -1
-1 x_5_16_0 +1 x_5_16_1 +0 x_5_16_2 -1 x_5_16_3 +1 x_5_8_0_sb +0 x_5_8_1_sb +0 x_5_8_2_sb +0 x_5_8_3_sb +0 p0_5_8 +1 p1_5_8 >= -1
+0 x_5_16_0 -1 x_5_16_1 +0 x_5_16_2 -1 x_5_16_3 +0 x_5_8_0_sb -1 x_5_8_1_sb +0 x_5_8_2_sb -1 x_5_8_3_sb +0 p0_5_8 +1 p1_5_8 >= -3
+1 x_5_16_0 +1 x_5_16_1 +0 x_5_16_2 +1 x_5_16_3 +0 x_5_8_0_sb +0 x_5_8_1_sb -1 x_5_8_2_sb +0 x_5_8_3_sb +0 p0_5_8 +0 p1_5_8 >= 0
-1 x_5_16_0 +0 x_5_16_1 +1 x_5_16_2 -1 x_5_16_3 +0 x_5_8_0_sb -1 x_5_8_1_sb -1 x_5_8_2_sb +0 x_5_8_3_sb +0 p0_5_8 -1 p1_5_8 >= -4
+1 x_5_16_0 +1 x_5_16_1 +0 x_5_16_2 -1 x_5_16_3 +1 x_5_8_0_sb +1 x_5_8_1_sb +0 x_5_8_2_sb -1 x_5_8_3_sb +0 p0_5_8 -1 p1_5_8 >= -2
+1 x_5_16_0 +0 x_5_16_1 +1 x_5_16_2 +0 x_5_16_3 +0 x_5_8_0_sb +1 x_5_8_1_sb +1 x_5_8_2_sb +1 x_5_8_3_sb +0 p0_5_8 -1 p1_5_8 >= 0
+1 x_5_16_0 +0 x_5_16_1 -1 x_5_16_2 -1 x_5_16_3 -1 x_5_8_0_sb -1 x_5_8_1_sb +0 x_5_8_2_sb -1 x_5_8_3_sb +0 p0_5_8 -1 p1_5_8 >= -5
+0 x_5_16_0 +0 x_5_16_1 +1 x_5_16_2 +1 x_5_16_3 -1 x_5_8_0_sb +0 x_5_8_1_sb -1 x_5_8_2_sb +0 x_5_8_3_sb +0 p0_5_8 -1 p1_5_8 >= -2
+0 x_5_16_0 +0 x_5_16_1 +1 x_5_16_2 +0 x_5_16_3 +1 x_5_8_0_sb -1 x_5_8_1_sb +0 x_5_8_2_sb -1 x_5_8_3_sb +0 p0_5_8 +0 p1_5_8 >= -1
+0 x_5_16_0 -1 x_5_16_1 +0 x_5_16_2 -1 x_5_16_3 +0 x_5_8_0_sb +1 x_5_8_1_sb +0 x_5_8_2_sb +1 x_5_8_3_sb +0 p0_5_8 +1 p1_5_8 >= -1
+0 x_5_16_0 +1 x_5_16_1 +0 x_5_16_2 +1 x_5_16_3 +0 x_5_8_0_sb -1 x_5_8_1_sb +0 x_5_8_2_sb -1 x_5_8_3_sb +0 p0_5_8 +1 p1_5_8 >= -1
+1 x_5_16_0 -1 x_5_16_1 +1 x_5_16_2 -1 x_5_16_3 +1 x_5_8_0_sb +0 x_5_8_1_sb +0 x_5_8_2_sb +0 x_5_8_3_sb +0 p0_5_8 +0 p1_5_8 >= -1
+1 x_5_16_0 +0 x_5_16_1 +0 x_5_16_2 +0 x_5_16_3 +1 x_5_8_0_sb -1 x_5_8_1_sb +1 x_5_8_2_sb -1 x_5_8_3_sb +0 p0_5_8 +0 p1_5_8 >= -1
+0 x_5_16_0 -1 x_5_16_1 +0 x_5_16_2 -1 x_5_16_3 +1 x_5_8_0_sb -1 x_5_8_1_sb -1 x_5_8_2_sb -1 x_5_8_3_sb +0 p0_5_8 +0 p1_5_8 >= -4
+1 x_5_16_0 +0 x_5_16_1 +0 x_5_16_2 +1 x_5_16_3 +0 x_5_8_0_sb -1 x_5_8_1_sb -1 x_5_8_2_sb +1 x_5_8_3_sb +0 p0_5_8 -1 p1_5_8 >= -2
+0 x_5_16_0 +0 x_5_16_1 -1 x_5_16_2 +1 x_5_16_3 -1 x_5_8_0_sb +1 x_5_8_1_sb +0 x_5_8_2_sb -1 x_5_8_3_sb +0 p0_5_8 -1 p1_5_8 >= -3
+0 x_5_16_0 +1 x_5_16_1 +0 x_5_16_2 +1 x_5_16_3 -1 x_5_8_0_sb -1 x_5_8_1_sb +0 x_5_8_2_sb +1 x_5_8_3_sb +0 p0_5_8 -1 p1_5_8 >= -2
-1 x_5_16_0 +1 x_5_16_1 +0 x_5_16_2 -1 x_5_16_3 +0 x_5_8_0_sb +0 x_5_8_1_sb -1 x_5_8_2_sb +1 x_5_8_3_sb +0 p0_5_8 -1 p1_5_8 >= -3
-1 x_5_16_0 +0 x_5_16_1 +0 x_5_16_2 +0 x_5_16_3 -1 x_5_8_0_sb +1 x_5_8_1_sb +0 x_5_8_2_sb -1 x_5_8_3_sb +0 p0_5_8 -1 p1_5_8 >= -3
+0 x_5_16_0 +0 x_5_16_1 -1 x_5_16_2 +0 x_5_16_3 +1 x_5_8_0_sb +1 x_5_8_1_sb +0 x_5_8_2_sb +1 x_5_8_3_sb +0 p0_5_8 +0 p1_5_8 >= 0
+0 x_5_18_0 +0 x_5_18_1 +0 x_5_18_2 +0 x_5_18_3 +0 x_5_9_0_sb +0 x_5_9_1_sb +0 x_5_9_2_sb +0 x_5_9_3_sb -1 p0_5_9 -1 p1_5_9 >= -1
+0 x_5_18_0 +0 x_5_18_1 +0 x_5_18_2 +0 x_5_18_3 +0 x_5_9_0_sb +0 x_5_9_1_sb +0 x_5_9_2_sb -1 x_5_9_3_sb +1 p0_5_9 +1 p1_5_9 >= 0
+0 x_5_18_0 +0 x_5_18_1 +0 x_5_18_2 +0 x_5_18_3 +0 x_5_9_0_sb -1 x_5_9_1_sb +0 x_5_9_2_sb +0 x_5_9_3_sb +1 p0_5_9 +1 p1_5_9 >= 0
+0 x_5_18_0 +0 x_5_18_1 +0 x_5_18_2 +0 x_5_18_3 -1 x_5_9_0_sb +0 x_5_9_1_sb +0 x_5_9_2_sb +0 x_5_9_3_sb +1 p0_5_9 +1 p1_5_9 >= 0
+0 x_5_18_0 +0 x_5_18_1 +0 x_5_18_2 +0 x_5_18_3 +1 x_5_9_0_sb +1 x_5_9_1_sb +1 x_5_9_2_sb +1 x_5_9_3_sb +0 p0_5_9 -1 p1_5_9 >= 0
+0 x_5_18_0 +0 x_5_18_1 +0 x_5_18_2 -1 x_5_18_3 +1 x_5_9_0_sb +1 x_5_9_1_sb +0 x_5_9_2_sb +1 x_5_9_3_sb +0 p0_5_9 +1 p1_5_9 >= 0
-1 x_5_18_0 +0 x_5_18_1 -1 x_5_18_2 +0 x_5_18_3 +1 x_5_9_0_sb +0 x_5_9_1_sb +0 x_5_9_2_sb +1 x_5_9_3_sb +0 p0_5_9 -1 p1_5_9 >= -2
+1 x_5_18_0 +0 x_5_18_1 +1 x_5_18_2 +0 x_5_18_3 +1 x_5_9_0_sb +0 x_5_9_1_sb +1 x_5_9_2_sb +0 x_5_9_3_sb +0 p0_5_9 -1 p1_5_9 >= 0
+0 x_5_18_0 +0 x_5_18_1 +0 x_5_18_2 +1 x_5_18_3 +0 x_5_9_0_sb +1 x_5_9_1_sb -1 x_5_9_2_sb -1 x_5_9_3_sb +0 p0_5_9 -1 p1_5_9 >= -2
-1 x_5_18_0 +0 x_5_18_1 +0 x_5_18_2 -1 x_5_18_3 -1 x_5_9_0_sb +0 x_5_9_1_sb +0 x_5_9_2_sb +1 x_5_9_3_sb +0 p0_5_9 -1 p1_5_9 >= -3
+0 x_5_18_0 +0 x_5_18_1 +0 x_5_18_2 +1 x_5_18_3 -1 x_5_9_0_sb -1 x_5_9_1_sb -1 x_5_9_2_sb +0 x_5_9_3_sb +0 p0_5_9 -1 p1_5_9 >= -3
+1 x_5_18_0 +1 x_5_18_1 +0 x_5_18_2 +1 x_5_18_3 +0 x_5_9_0_sb +0 x_5_9_1_sb +0 x_5_9_2_sb +0 x_5_9_3_sb -1 p0_5_9 +0 p1_5_9 >= 0
+0 x_5_18_0 +0 x_5_18_1 +1 x_5_18_2 +1 x_5_18_3 +0 x_5_9_0_sb -1 x_5_9_1_sb +1 x_5_9_2_sb +0 x_5_9_3_sb +0 p0_5_9 -1 p1_5_9 >= -1
+0 x_5_18_0 +1 x_5_18_1 +0 x_5_18_2 -1 x_5_18_3 -1 x_5_9_0_sb +0 x_5_9_1_sb -1 x_5_9_2_sb +0 x_5_9_3_sb +0 p0_5_9 -1 p1_5_9 >= -3
+0 x_5_18_0 +1 x_5_18_1 +1 x_5_18_2 +0 x_5_18_3 +0 x_5_9_0_sb +0 x_5_9_1_sb +1 x_5_9_2_sb -1 x_5_9_3_sb +0 p0_5_9 -1 p1_5_9 >= -1
-1 x_5_18_0 +0 x_5_18_1 -1 x_5_18_2 +0 x_5_18_3 -1 x_5_9_0_sb +0 x_5_9_1_sb +1 x_5_9_2_sb +0 x_5_9_3_sb +0 p0_5_9 -1 p1_5_9 >= -3
+0 x_5_18_0 -1 x_5_18_1 -1 x_5_18_2 +0 x_5_18_3 +0 x_5_9_0_sb +1 x_5_9_1_sb +0 x_5_9_2_sb +1 x_5_9_3_sb +0 p0_5_9 -1 p1_5_9 >= -2
+0 x_5_18_0 -1 x_5_18_1 +0 x_5_18_2 +0 x_5_18_3 +1 x_5_9_0_sb +1 x_5_9_1_sb +0 x_5_9_2_sb +1 x_5_9_3_sb +0 p0_5_9 +1 p1_5_9 >= 0
-1 x_5_18_0 -1 x_5_18_1 +0 x_5_18_2 +1 x_5_18_3 +0 x_5_9_0_sb +1 x_5_9_1_sb +0 x_5_9_2_sb +1 x_5_9_3_sb +0 p0_5_9 -1 p1_5_9 >= -2
+0 x_5_18_0 -1 x_5_18_1 +0 x_5_18_2 +0 x_5_18_3 +1 x_5_9_0_sb +0 x_5_9_1_sb +1 x_5_9_2_sb +1 x_5_9_3_sb +0 p0_5_9 -1 p1_5_9 >= -1
-1 x_5_18_0 +0 x_5_18_1 -1 x_5_18_2 +0 x_5_18_3 +1 x_5_9_0_sb +1 x_5_9_1_sb +0 x_5_9_2_sb +0 x_5_9_3_sb +0 p0_5_9 -1 p1_5_9 >= -2
+0 x_5_18_0 +1 x_5_18_1 -1 x_5_18_2 -1 x_5_18_3 +0 x_5_9_0_sb +0 x_5_9_1_sb +0 x_5_9_2_sb +1 x_5_9_3_sb +0 p0_5_9 -1 p1_5_9 >= -2
-1 x_5_18_0 -1 x_5_18_1 +0 x_5_18_2 -1 x_5_18_3 +0 x_5_9_0_sb +1 x_5_9_1_sb +0 x_5_9_2_sb -1 x_5_9_3_sb +0 p0_5_9 -1 p1_5_9 >= -4
-1 x_5_18_0 +1 x_5_18_1 +0 x_5_18_2 +1 x_5_18_3 +0 x_5_9_0_sb +1 x_5_9_1_sb +0 x_5_9_2_sb +1 x_5_9_3_sb +0 p0_5_9 +1 p1_5_9 >= 0
+0 x_5_18_0 +0 x_5_18_1 +0 x_5_18_2 +0 x_5_18_3 +1 x_5_9_0_sb -1 x_5_9_1_sb +0 x_5_9_2_sb -1 x_5_9_3_sb +0 p0_5_9 +1 p1_5_9 >= -1
+1 x_5_18_0 +0 x_5_18_1 +1 x_5_18_2 +0 x_5_18_3 +1 x_5_9_0_sb -1 x_5_9_1_sb +0 x_5_9_2_sb +0 x_5_9_3_sb +0 p0_5_9 -1 p1_5_9 >= -1
+0 x_5_18_0 +1 x_5_18_1 +0 x_5_18_2 +1 x_5_18_3 +0 x_5_9_0_sb -1 x_5_9_1_sb -1 x_5_9_2_sb +0 x_5_9_3_sb +0 p0_5_9 -1 p1_5_9 >= -2
+1 x_5_18_0 -1 x_5_18_1 +0 x_5_18_2 -1 x_5_18_3 +0 x_5_9_0_sb +0 x_5_9_1_sb +1 x_5_9_2_sb +0 x_5_9_3_sb +0 p0_5_9 +0 p1_5_9 >= -1
+1 x_5_18_0 -1 x_5_18_1 -1 x_5_18_2 +0 x_5_18_3 +0 x_5_9_0_sb +0 x_5_9_1_sb +1 x_5_9_2_sb -1 x_5_9_3_sb +0 p0_5_9 -1 p1_5_9 >= -3
+1 x_5_18_0 -1 x_5_18_1 +0 x_5_18_2 -1 x_5_18_3 +0 x_5_9_0_sb +0 x_5_9_1_sb +0 x_5_9_2_sb +0 x_5_9_3_sb +0 p0_5_9 +1 p1_5_9 >= -1
+1 x_5_18_0 +0 x_5_18_1 +0 x_5_18_2 +0 x_5_18_3 -1 x_5_9_0_sb +1 x_5_9_1_sb +0 x_5_9_2_sb -1 x_5_9_3_sb +0 p0_5_9 +1 p1_5_9 >= -1
+1 x_5_18_0 +0 x_5_18_1 +0 x_5_18_2 +0 x_5_18_3 -1 x_5_9_0_sb -1 x_5_9_1_sb +0 x_5_9_2_sb +1 x_5_9_3_sb +0 p0_5_9 +1 p1_5_9 >= -1
-1 x_5_18_0 -1 x_5_18_1 +0 x_5_18_2 +1 x_5_18_3 +1 x_5_9_0_sb +0 x_5_9_1_sb +0 x_5_9_2_sb +0 x_5_9_3_sb +0 p0_5_9 +1 p1_5_9 >= -1
-1 x_5_18_0 +1 x_5_18_1 +0 x_5_18_2 -1 x_5_18_3 +1 x_5_9_0_sb +0 x_5_9_1_sb +0 x_5_9_2_sb +0 x_5_9_3_sb +0 p0_5_9 +1 p1_5_9 >= -1
+0 x_5_18_0 -1 x_5_18_1 +0 x_5_18_2 -1 x_5_18_3 +0 x_5_9_0_sb -1 x_5_9_1_sb +0 x_5_9_2_sb -1 x_5_9_3_sb +0 p0_5_9 +1 p1_5_9 >= -3
+1 x_5_18_0 +1 x_5_18_1 +0 x_5_18_2 +1 x_5_18_3 +0 x_5_9_0_sb +0 x_5_9_1_sb -1 x_5_9_2_sb +0 x_5_9_3_sb +0 p0_5_9 +0 p1_5_9 >= 0
-1 x_5_18_0 +0 x_5_18_1 +1 x_5_18_2 -1 x_5_18_3 +0 x_5_9_0_sb -1 x_5_9_1_sb -1 x_5_9_2_sb +0 x_5_9_3_sb +0 p0_5_9 -1 p1_5_9 >= -4
+1 x_5_18_0 +1 x_5_18_1 +0 x_5_18_2 -1 x_5_18_3 +1 x_5_9_0_sb +1 x_5_9_1_sb +0 x_5_9_2_sb -1 x_5_9_3_sb +0 p0_5_9 -1 p1_5_9 >= -2
+1 x_5_18_0 +0 x_5_18_1 +1 x_5_18_2 +0 x_5_18_3 +0 x_5_9_0_sb +1 x_5_9_1_sb +1 x_5_9_2_sb +1 x_5_9_3_sb +0 p0_5_9 -1 p1_5_9 >= 0
+1 x_5_18_0 +0 x_5_18_1 -1 x_5_18_2 -1 x_5_18_3 -1 x_5_9_0_sb -1 x_5_9_1_sb +0 x_5_9_2_sb -1 x_5_9_3_sb +0 p0_5_9 -1 p1_5_9 >= -5
+0 x_5_18_0 +0 x_5_18_1 +1 x_5_18_2 +1 x_5_18_3 -1 x_5_9_0_sb +0 x_5_9_1_sb -1 x_5_9_2_sb +0 x_5_9_3_sb +0 p0_5_9 -1 p1_5_9 >= -2
+0 x_5_18_0 +0 x_5_18_1 +1 x_5_18_2 +0 x_5_18_3 +1 x_5_9_0_sb -1 x_5_9_1_sb +0 x_5_9_2_sb -1 x_5_9_3_sb +0 p0_5_9 +0 p1_5_9 >= -1
+0 x_5_18_0 -1 x_5_18_1 +0 x_5_18_2 -1 x_5_18_3 +0 x_5_9_0_sb +1 x_5_9_1_sb +0 x_5_9_2_sb +1 x_5_9_3_sb +0 p0_5_9 +1 p1_5_9 >= -1
+0 x_5_18_0 +1 x_5_18_1 +0 x_5_18_2 +1 x_5_18_3 +0 x_5_9_0_sb -1 x_5_9_1_sb +0 x_5_9_2_sb -1 x_5_9_3_sb +0 p0_5_9 +1 p1_5_9 >= -1
+1 x_5_18_0 -1 x_5_18_1 +1 x_5_18_2 -1 x_5_18_3 +1 x_5_9_0_sb +0 x_5_9_1_sb +0 x_5_9_2_sb +0 x_5_9_3_sb +0 p0_5_9 +0 p1_5_9 >= -1
+1 x_5_18_0 +0 x_5_18_1 +0 x_5_18_2 +0 x_5_18_3 +1 x_5_9_0_sb -1 x_5_9_1_sb +1 x_5_9_2_sb -1 x_5_9_3_sb +0 p0_5_9 +0 p1_5_9 >= -1
+0 x_5_18_0 -1 x_5_18_1 +0 x_5_18_2 -1 x_5_18_3 +1 x_5_9_0_sb -1 x_5_9_1_sb -1 x_5_9_2_sb -1 x_5_9_3_sb +0 p0_5_9 +0 p1_5_9 >= -4
+1 x_5_18_0 +0 x_5_18_1 +0 x_5_18_2 +1 x_5_18_3 +0 x_5_9_0_sb -1 x_5_9_1_sb -1 x_5_9_2_sb +1 x_5_9_3_sb +0 p0_5_9 -1 p1_5_9 >= -2
+0 x_5_18_0 +0 x_5_18_1 -1 x_5_18_2 +1 x_5_18_3 -1 x_5_9_0_sb +1 x_5_9_1_sb +0 x_5_9_2_sb -1 x_5_9_3_sb +0 p0_5_9 -1 p1_5_9 >= -3
+0 x_5_18_0 +1 x_5_18_1 +0 x_5_18_2 +1 x_5_18_3 -1 x_5_9_0_sb -1 x_5_9_1_sb +0 x_5_9_2_sb +1 x_5_9_3_sb +0 p0_5_9 -1 p1_5_9 >= -2
-1 x_5_18_0 +1 x_5_18_1 +0 x_5_18_2 -1 x_5_18_3 +0 x_5_9_0_sb +0 x_5_9_1_sb -1 x_5_9_2_sb +1 x_5_9_3_sb +0 p0_5_9 -1 p1_5_9 >= -3
-1 x_5_18_0 +0 x_5_18_1 +0 x_5_18_2 +0 x_5_18_3 -1 x_5_9_0_sb +1 x_5_9_1_sb +0 x_5_9_2_sb -1 x_5_9_3_sb +0 p0_5_9 -1 p1_5_9 >= -3
+0 x_5_18_0 +0 x_5_18_1 -1 x_5_18_2 +0 x_5_18_3 +1 x_5_9_0_sb +1 x_5_9_1_sb +0 x_5_9_2_sb +1 x_5_9_3_sb +0 p0_5_9 +0 p1_5_9 >= 0
+0 x_5_20_0 +0 x_5_20_1 +0 x_5_20_2 +0 x_5_20_3 +0 x_5_10_0_sb +0 x_5_10_1_sb +0 x_5_10_2_sb +0 x_5_10_3_sb -1 p0_5_10 -1 p1_5_10 >= -1
+0 x_5_20_0 +0 x_5_20_1 +0 x_5_20_2 +0 x_5_20_3 +0 x_5_10_0_sb +0 x_5_10_1_sb +0 x_5_10_2_sb -1 x_5_10_3_sb +1 p0_5_10 +1 p1_5_10 >= 0
+0 x_5_20_0 +0 x_5_20_1 +0 x_5_20_2 +0 x_5_20_3 +0 x_5_10_0_sb -1 x_5_10_1_sb +0 x_5_10_2_sb +0 x_5_10_3_sb +1 p0_5_10 +1 p1_5_10 >= 0
+0 x_5_20_0 +0 x_5_20_1 +0 x_5_20_2 +0 x_5_20_3 -1 x_5_10_0_sb +0 x_5_10_1_sb +0 x_5_10_2_sb +0 x_5_10_3_sb +1 p0_5_10 +1 p1_5_10 >= 0
+0 x_5_20_0 +0 x_5_20_1 +0 x_5_20_2 +0 x_5_20_3 +1 x_5_10_0_sb +1 x_5_10_1_sb +1 x_5_10_2_sb +1 x_5_10_3_sb +0 p0_5_10 -1 p1_5_10 >= 0
+0 x_5_20_0 +0 x_5_20_1 +0 x_5_20_2 -1 x_5_20_3 +1 x_5_10_0_sb +1 x_5_10_1_sb +0 x_5_10_2_sb +1 x_5_10_3_sb +0 p0_5_10 +1 p1_5_10 >= 0
-1 x_5_20_0 +0 x_5_20_1 -1 x_5_20_2 +0 x_5_20_3 +1 x_5_10_0_sb +0 x_5_10_1_sb +0 x_5_10_2_sb +1 x_5_10_3_sb +0 p0_5_10 -1 p1_5_10 >= -2
+1 x_5_20_0 +0 x_5_20_1 +1 x_5_20_2 +0 x_5_20_3 +1 x_5_10_0_sb +0 x_5_10_1_sb +1 x_5_10_2_sb +0 x_5_10_3_sb +0 p0_5_10 -1 p1_5_10 >= 0
+0 x_5_20_0 +0 x_5_20_1 +0 x_5_20_2 +1 x_5_20_3 +0 x_5_10_0_sb +1 x_5_10_1_sb -1 x_5_10_2_sb -1 x_5_10_3_sb +0 p0_5_10 -1 p1_5_10 >= -2
-1 x_5_20_0 +0 x_5_20_1 +0 x_5_20_2 -1 x_5_20_3 -1 x_5_10_0_sb +0 x_5_10_1_sb +0 x_5_10_2_sb +1 x_5_10_3_sb +0 p0_5_10 -1 p1_5_10 >= -3
+0 x_5_20_0 +0 x_5_20_1 +0 x_5_20_2 +1 x_5_20_3 -1 x_5_10_0_sb -1 x_5_10_1_sb -1 x_5_10_2_sb +0 x_5_10_3_sb +0 p0_5_10 -1 p1_5_10 >= -3
+1 x_5_20_0 +1 x_5_20_1 +0 x_5_20_2 +1 x_5_20_3 +0 x_5_10_0_sb +0 x_5_10_1_sb +0 x_5_10_2_sb +0 x_5_10_3_sb -1 p0_5_10 +0 p1_5_10 >= 0
+0 x_5_20_0 +0 x_5_20_1 +1 x_5_20_2 +1 x_5_20_3 +0 x_5_10_0_sb -1 x_5_10_1_sb +1 x_5_10_2_sb +0 x_5_10_3_sb +0 p0_5_10 -1 p1_5_10 >= -1
+0 x_5_20_0 +1 x_5_20_1 +0 x_5_20_2 -1 x_5_20_3 -1 x_5_10_0_sb +0 x_5_10_1_sb -1 x_5_10_2_sb +0 x_5_10_3_sb +0 p0_5_10 -1 p1_5_10 >= -3
+0 x_5_20_0 +1 x_5_20_1 +1 x_5_20_2 +0 x_5_20_3 +0 x_5_10_0_sb +0 x_5_10_1_sb +1 x_5_10_2_sb -1 x_5_10_3_sb +0 p0_5_10 -1 p1_5_10 >= -1
-1 x_5_20_0 +0 x_5_20_1 -1 x_5_20_2 +0 x_5_20_3 -1 x_5_10_0_sb +0 x_5_10_1_sb +1 x_5_10_2_sb +0 x_5_10_3_sb +0 p0_5_10 -1 p1_5_10 >= -3
+0 x_5_20_0 -1 x_5_20_1 -1 x_5_20_2 +0 x_5_20_3 +0 x_5_10_0_sb +1 x_5_10_1_sb +0 x_5_10_2_sb +1 x_5_10_3_sb +0 p0_5_10 -1 p1_5_10 >= -2
+0 x_5_20_0 -1 x_5_20_1 +0 x_5_20_2 +0 x_5_20_3 +1 x_5_10_0_sb +1 x_5_10_1_sb +0 x_5_10_2_sb +1 x_5_10_3_sb +0 p0_5_10 +1 p1_5_10 >= 0
-1 x_5_20_0 -1 x_5_20_1 +0 x_5_20_2 +1 x_5_20_3 +0 x_5_10_0_sb +1 x_5_10_1_sb +0 x_5_10_2_sb +1 x_5_10_3_sb +0 p0_5_10 -1 p1_5_10 >= -2
+0 x_5_20_0 -1 x_5_20_1 +0 x_5_20_2 +0 x_5_20_3 +1 x_5_10_0_sb +0 x_5_10_1_sb +1 x_5_10_2_sb +1 x_5_10_3_sb +0 p0_5_10 -1 p1_5_10 >= -1
-1 x_5_20_0 +0 x_5_20_1 -1 x_5_20_2 +0 x_5_20_3 +1 x_5_10_0_sb +1 x_5_10_1_sb +0 x_5_10_2_sb +0 x_5_10_3_sb +0 p0_5_10 -1 p1_5_10 >= -2
+0 x_5_20_0 +1 x_5_20_1 -1 x_5_20_2 -1 x_5_20_3 +0 x_5_10_0_sb +0 x_5_10_1_sb +0 x_5_10_2_sb +1 x_5_10_3_sb +0 p0_5_10 -1 p1_5_10 >= -2
-1 x_5_20_0 -1 x_5_20_1 +0 x_5_20_2 -1 x_5_20_3 +0 x_5_10_0_sb +1 x_5_10_1_sb +0 x_5_10_2_sb -1 x_5_10_3_sb +0 p0_5_10 -1 p1_5_10 >= -4
-1 x_5_20_0 +1 x_5_20_1 +0 x_5_20_2 +1 x_5_20_3 +0 x_5_10_0_sb +1 x_5_10_1_sb +0 x_5_10_2_sb +1 x_5_10_3_sb +0 p0_5_10 +1 p1_5_10 >= 0
+0 x_5_20_0 +0 x_5_20_1 +0 x_5_20_2 +0 x_5_20_3 +1 x_5_10_0_sb -1 x_5_10_1_sb +0 x_5_10_2_sb -1 x_5_10_3_sb +0 p0_5_10 +1 p1_5_10 >= -1
+1 x_5_20_0 +0 x_5_20_1 +1 x_5_20_2 +0 x_5_20_3 +1 x_5_10_0_sb -1 x_5_10_1_sb +0 x_5_10_2_sb +0 x_5_10_3_sb +0 p0_5_10 -1 p1_5_10 >= -1
+0 x_5_20_0 +1 x_5_20_1 +0 x_5_20_2 +1 x_5_20_3 +0 x_5_10_0_sb -1 x_5_10_1_sb -1 x_5_10_2_sb +0 x_5_10_3_sb +0 p0_5_10 -1 p1_5_10 >= -2
+1 x_5_20_0 -1 x_5_20_1 +0 x_5_20_2 -1 x_5_20_3 +0 x_5_10_0_sb +0 x_5_10_1_sb +1 x_5_10_2_sb +0 x_5_10_3_sb +0 p0_5_10 +0 p1_5_10 >= -1
+1 x_5_20_0 -1 x_5_20_1 -1 x_5_20_2 +0 x_5_20_3 +0 x_5_10_0_sb +0 x_5_10_1_sb +1 x_5_10_2_sb -1 x_5_10_3_sb +0 p0_5_10 -1 p1_5_10 >= -3
+1 x_5_20_0 -1 x_5_20_1 +0 x_5_20_2 -1 x_5_20_3 +0 x_5_10_0_sb +0 x_5_10_1_sb +0 x_5_10_2_sb +0 x_5_10_3_sb +0 p0_5_10 +1 p1_5_10 >= -1
+1 x_5_20_0 +0 x_5_20_1 +0 x_5_20_2 +0 x_5_20_3 -1 x_5_10_0_sb +1 x_5_10_1_sb +0 x_5_10_2_sb -1 x_5_10_3_sb +0 p0_5_10 +1 p1_5_10 >= -1
+1 x_5_20_0 +0 x_5_20_1 +0 x_5_20_2 +0 x_5_20_3 -1 x_5_10_0_sb -1 x_5_10_1_sb +0 x_5_10_2_sb +1 x_5_10_3_sb +0 p0_5_10 +1 p1_5_10 >= -1
-1 x_5_20_0 -1 x_5_20_1 +0 x_5_20_2 +1 x_5_20_3 +1 x_5_10_0_sb +0 x_5_10_1_sb +0 x_5_10_2_sb +0 x_5_10_3_sb +0 p0_5_10 +1 p1_5_10 >= -1
-1 x_5_20_0 +1 x_5_20_1 +0 x_5_20_2 -1 x_5_20_3 +1 x_5_10_0_sb +0 x_5_10_1_sb +0 x_5_10_2_sb +0 x_5_10_3_sb +0 p0_5_10 +1 p1_5_10 >= -1
+0 x_5_20_0 -1 x_5_20_1 +0 x_5_20_2 -1 x_5_20_3 +0 x_5_10_0_sb -1 x_5_10_1_sb +0 x_5_10_2_sb -1 x_5_10_3_sb +0 p0_5_10 +1 p1_5_10 >= -3
+1 x_5_20_0 +1 x_5_20_1 +0 x_5_20_2 +1 x_5_20_3 +0 x_5_10_0_sb +0 x_5_10_1_sb -1 x_5_10_2_sb +0 x_5_10_3_sb +0 p0_5_10 +0 p1_5_10 >= 0
-1 x_5_20_0 +0 x_5_20_1 +1 x_5_20_2 -1 x_5_20_3 +0 x_5_10_0_sb -1 x_5_10_1_sb -1 x_5_10_2_sb +0 x_5_10_3_sb +0 p0_5_10 -1 p1_5_10 >= -4
+1 x_5_20_0 +1 x_5_20_1 +0 x_5_20_2 -1 x_5_20_3 +1 x_5_10_0_sb +1 x_5_10_1_sb +0 x_5_10_2_sb -1 x_5_10_3_sb +0 p0_5_10 -1 p1_5_10 >= -2
+1 x_5_20_0 +0 x_5_20_1 +1 x_5_20_2 +0 x_5_20_3 +0 x_5_10_0_sb +1 x_5_10_1_sb +1 x_5_10_2_sb +1 x_5_10_3_sb +0 p0_5_10 -1 p1_5_10 >= 0
+1 x_5_20_0 +0 x_5_20_1 -1 x_5_20_2 -1 x_5_20_3 -1 x_5_10_0_sb -1 x_5_10_1_sb +0 x_5_10_2_sb -1 x_5_10_3_sb +0 p0_5_10 -1 p1_5_10 >= -5
+0 x_5_20_0 +0 x_5_20_1 +1 x_5_20_2 +1 x_5_20_3 -1 x_5_10_0_sb +0 x_5_10_1_sb -1 x_5_10_2_sb +0 x_5_10_3_sb +0 p0_5_10 -1 p1_5_10 >= -2
+0 x_5_20_0 +0 x_5_20_1 +1 x_5_20_2 +0 x_5_20_3 +1 x_5_10_0_sb -1 x_5_10_1_sb +0 x_5_10_2_sb -1 x_5_10_3_sb +0 p0_5_10 +0 p1_5_10 >= -1
+0 x_5_20_0 -1 x_5_20_1 +0 x_5_20_2 -1 x_5_20_3 +0 x_5_10_0_sb +1 x_5_10_1_sb +0 x_5_10_2_sb +1 x_5_10_3_sb +0 p0_5_10 +1 p1_5_10 >= -1
+0 x_5_20_0 +1 x_5_20_1 +0 x_5_20_2 +1 x_5_20_3 +0 x_5_10_0_sb -1 x_5_10_1_sb +0 x_5_10_2_sb -1 x_5_10_3_sb +0 p0_5_10 +1 p1_5_10 >= -1
+1 x_5_20_0 -1 x_5_20_1 +1 x_5_20_2 -1 x_5_20_3 +1 x_5_10_0_sb +0 x_5_10_1_sb +0 x_5_10_2_sb +0 x_5_10_3_sb +0 p0_5_10 +0 p1_5_10 >= -1
+1 x_5_20_0 +0 x_5_20_1 +0 x_5_20_2 +0 x_5_20_3 +1 x_5_10_0_sb -1 x_5_10_1_sb +1 x_5_10_2_sb -1 x_5_10_3_sb +0 p0_5_10 +0 p1_5_10 >= -1
+0 x_5_20_0 -1 x_5_20_1 +0 x_5_20_2 -1 x_5_20_3 +1 x_5_10_0_sb -1 x_5_10_1_sb -1 x_5_10_2_sb -1 x_5_10_3_sb +0 p0_5_10 +0 p1_5_10 >= -4
+1 x_5_20_0 +0 x_5_20_1 +0 x_5_20_2 +1 x_5_20_3 +0 x_5_10_0_sb -1 x_5_10_1_sb -1 x_5_10_2_sb +1 x_5_10_3_sb +0 p0_5_10 -1 p1_5_10 >= -2
+0 x_5_20_0 +0 x_5_20_1 -1 x_5_20_2 +1 x_5_20_3 -1 x_5_10_0_sb +1 x_5_10_1_sb +0 x_5_10_2_sb -1 x_5_10_3_sb +0 p0_5_10 -1 p1_5_10 >= -3
+0 x_5_20_0 +1 x_5_20_1 +0 x_5_20_2 +1 x_5_20_3 -1 x_5_10_0_sb -1 x_5_10_1_sb +0 x_5_10_2_sb +1 x_5_10_3_sb +0 p0_5_10 -1 p1_5_10 >= -2
-1 x_5_20_0 +1 x_5_20_1 +0 x_5_20_2 -1 x_5_20_3 +0 x_5_10_0_sb +0 x_5_10_1_sb -1 x_5_10_2_sb +1 x_5_10_3_sb +0 p0_5_10 -1 p1_5_10 >= -3
-1 x_5_20_0 +0 x_5_20_1 +0 x_5_20_2 +0 x_5_20_3 -1 x_5_10_0_sb +1 x_5_10_1_sb +0 x_5_10_2_sb -1 x_5_10_3_sb +0 p0_5_10 -1 p1_5_10 >= -3
+0 x_5_20_0 +0 x_5_20_1 -1 x_5_20_2 +0 x_5_20_3 +1 x_5_10_0_sb +1 x_5_10_1_sb +0 x_5_10_2_sb +1 x_5_10_3_sb +0 p0_5_10 +0 p1_5_10 >= 0
+0 x_5_22_0 +0 x_5_22_1 +0 x_5_22_2 +0 x_5_22_3 +0 x_5_11_0_sb +0 x_5_11_1_sb +0 x_5_11_2_sb +0 x_5_11_3_sb -1 p0_5_11 -1 p1_5_11 >= -1
+0 x_5_22_0 +0 x_5_22_1 +0 x_5_22_2 +0 x_5_22_3 +0 x_5_11_0_sb +0 x_5_11_1_sb +0 x_5_11_2_sb -1 x_5_11_3_sb +1 p0_5_11 +1 p1_5_11 >= 0
+0 x_5_22_0 +0 x_5_22_1 +0 x_5_22_2 +0 x_5_22_3 +0 x_5_11_0_sb -1 x_5_11_1_sb +0 x_5_11_2_sb +0 x_5_11_3_sb +1 p0_5_11 +1 p1_5_11 >= 0
+0 x_5_22_0 +0 x_5_22_1 +0 x_5_22_2 +0 x_5_22_3 -1 x_5_11_0_sb +0 x_5_11_1_sb +0 x_5_11_2_sb +0 x_5_11_3_sb +1 p0_5_11 +1 p1_5_11 >= 0
+0 x_5_22_0 +0 x_5_22_1 +0 x_5_22_2 +0 x_5_22_3 +1 x_5_11_0_sb +1 x_5_11_1_sb +1 x_5_11_2_sb +1 x_5_11_3_sb +0 p0_5_11 -1 p1_5_11 >= 0
+0 x_5_22_0 +0 x_5_22_1 +0 x_5_22_2 -1 x_5_22_3 +1 x_5_11_0_sb +1 x_5_11_1_sb +0 x_5_11_2_sb +1 x_5_11_3_sb +0 p0_5_11 +1 p1_5_11 >= 0
-1 x_5_22_0 +0 x_5_22_1 -1 x_5_22_2 +0 x_5_22_3 +1 x_5_11_0_sb +0 x_5_11_1_sb +0 x_5_11_2_sb +1 x_5_11_3_sb +0 p0_5_11 -1 p1_5_11 >= -2
+1 x_5_22_0 +0 x_5_22_1 +1 x_5_22_2 +0 x_5_22_3 +1 x_5_11_0_sb +0 x_5_11_1_sb +1 x_5_11_2_sb +0 x_5_11_3_sb +0 p0_5_11 -1 p1_5_11 >= 0
+0 x_5_22_0 +0 x_5_22_1 +0 x_5_22_2 +1 x_5_22_3 +0 x_5_11_0_sb +1 x_5_11_1_sb -1 x_5_11_2_sb -1 x_5_11_3_sb +0 p0_5_11 -1 p1_5_11 >= -2
-1 x_5_22_0 +0 x_5_22_1 +0 x_5_22_2 -1 x_5_22_3 -1 x_5_11_0_sb +0 x_5_11_1_sb +0 x_5_11_2_sb +1 x_5_11_3_sb +0 p0_5_11 -1 p1_5_11 >= -3
+0 x_5_22_0 +0 x_5_22_1 +0 x_5_22_2 +1 x_5_22_3 -1 x_5_11_0_sb -1 x_5_11_1_sb -1 x_5_11_2_sb +0 x_5_11_3_sb +0 p0_5_11 -1 p1_5_11 >= -3
+1 x_5_22_0 +1 x_5_22_1 +0 x_5_22_2 +1 x_5_22_3 +0 x_5_11_0_sb +0 x_5_11_1_sb +0 x_5_11_2_sb +0 x_5_11_3_sb -1 p0_5_11 +0 p1_5_11 >= 0
+0 x_5_22_0 +0 x_5_22_1 +1 x_5_22_2 +1 x_5_22_3 +0 x_5_11_0_sb -1 x_5_11_1_sb +1 x_5_11_2_sb +0 x_5_11_3_sb +0 p0_5_11 -1 p1_5_11 >= -1
+0 x_5_22_0 +1 x_5_22_1 +0 x_5_22_2 -1 x_5_22_3 -1 x_5_11_0_sb +0 x_5_11_1_sb -1 x_5_11_2_sb +0 x_5_11_3_sb +0 p0_5_11 -1 p1_5_11 >= -3
+0 x_5_22_0 +1 x_5_22_1 +1 x_5_22_2 +0 x_5_22_3 +0 x_5_11_0_sb +0 x_5_11_1_sb +1 x_5_11_2_sb -1 x_5_11_3_sb +0 p0_5_11 -1 p1_5_11 >= -1
-1 x_5_22_0 +0 x_5_22_1 -1 x_5_22_2 +0 x_5_22_3 -1 x_5_11_0_sb +0 x_5_11_1_sb +1 x_5_11_2_sb +0 x_5_11_3_sb +0 p0_5_11 -1 p1_5_11 >= -3
+0 x_5_22_0 -1 x_5_22_1 -1 x_5_22_2 +0 x_5_22_3 +0 x_5_11_0_sb +1 x_5_11_1_sb +0 x_5_11_2_sb +1 x_5_11_3_sb +0 p0_5_11 -1 p1_5_11 >= -2
+0 x_5_22_0 -1 x_5_22_1 +0 x_5_22_2 +0 x_5_22_3 +1 x_5_11_0_sb +1 x_5_11_1_sb +0 x_5_11_2_sb +1 x_5_11_3_sb +0 p0_5_11 +1 p1_5_11 >= 0
-1 x_5_22_0 -1 x_5_22_1 +0 x_5_22_2 +1 x_5_22_3 +0 x_5_11_0_sb +1 x_5_11_1_sb +0 x_5_11_2_sb +1 x_5_11_3_sb +0 p0_5_11 -1 p1_5_11 >= -2
+0 x_5_22_0 -1 x_5_22_1 +0 x_5_22_2 +0 x_5_22_3 +1 x_5_11_0_sb +0 x_5_11_1_sb +1 x_5_11_2_sb +1 x_5_11_3_sb +0 p0_5_11 -1 p1_5_11 >= -1
-1 x_5_22_0 +0 x_5_22_1 -1 x_5_22_2 +0 x_5_22_3 +1 x_5_11_0_sb +1 x_5_11_1_sb +0 x_5_11_2_sb +0 x_5_11_3_sb +0 p0_5_11 -1 p1_5_11 >= -2
+0 x_5_22_0 +1 x_5_22_1 -1 x_5_22_2 -1 x_5_22_3 +0 x_5_11_0_sb +0 x_5_11_1_sb +0 x_5_11_2_sb +1 x_5_11_3_sb +0 p0_5_11 -1 p1_5_11 >= -2
-1 x_5_22_0 -1 x_5_22_1 +0 x_5_22_2 -1 x_5_22_3 +0 x_5_11_0_sb +1 x_5_11_1_sb +0 x_5_11_2_sb -1 x_5_11_3_sb +0 p0_5_11 -1 p1_5_11 >= -4
-1 x_5_22_0 +1 x_5_22_1 +0 x_5_22_2 +1 x_5_22_3 +0 x_5_11_0_sb +1 x_5_11_1_sb +0 x_5_11_2_sb +1 x_5_11_3_sb +0 p0_5_11 +1 p1_5_11 >= 0
+0 x_5_22_0 +0 x_5_22_1 +0 x_5_22_2 +0 x_5_22_3 +1 x_5_11_0_sb -1 x_5_11_1_sb +0 x_5_11_2_sb -1 x_5_11_3_sb +0 p0_5_11 +1 p1_5_11 >= -1
+1 x_5_22_0 +0 x_5_22_1 +1 x_5_22_2 +0 x_5_22_3 +1 x_5_11_0_sb -1 x_5_11_1_sb +0 x_5_11_2_sb +0 x_5_11_3_sb +0 p0_5_11 -1 p1_5_11 >= -1
+0 x_5_22_0 +1 x_5_22_1 +0 x_5_22_2 +1 x_5_22_3 +0 x_5_11_0_sb -1 x_5_11_1_sb -1 x_5_11_2_sb +0 x_5_11_3_sb +0 p0_5_11 -1 p1_5_11 >= -2
+1 x_5_22_0 -1 x_5_22_1 +0 x_5_22_2 -1 x_5_22_3 +0 x_5_11_0_sb +0 x_5_11_1_sb +1 x_5_11_2_sb +0 x_5_11_3_sb +0 p0_5_11 +0 p1_5_11 >= -1
+1 x_5_22_0 -1 x_5_22_1 -1 x_5_22_2 +0 x_5_22_3 +0 x_5_11_0_sb +0 x_5_11_1_sb +1 x_5_11_2_sb -1 x_5_11_3_sb +0 p0_5_11 -1 p1_5_11 >= -3
+1 x_5_22_0 -1 x_5_22_1 +0 x_5_22_2 -1 x_5_22_3 +0 x_5_11_0_sb +0 x_5_11_1_sb +0 x_5_11_2_sb +0 x_5_11_3_sb +0 p0_5_11 +1 p1_5_11 >= -1
+1 x_5_22_0 +0 x_5_22_1 +0 x_5_22_2 +0 x_5_22_3 -1 x_5_11_0_sb +1 x_5_11_1_sb +0 x_5_11_2_sb -1 x_5_11_3_sb +0 p0_5_11 +1 p1_5_11 >= -1
+1 x_5_22_0 +0 x_5_22_1 +0 x_5_22_2 +0 x_5_22_3 -1 x_5_11_0_sb -1 x_5_11_1_sb +0 x_5_11_2_sb +1 x_5_11_3_sb +0 p0_5_11 +1 p1_5_11 >= -1
-1 x_5_22_0 -1 x_5_22_1 +0 x_5_22_2 +1 x_5_22_3 +1 x_5_11_0_sb +0 x_5_11_1_sb +0 x_5_11_2_sb +0 x_5_11_3_sb +0 p0_5_11 +1 p1_5_11 >= -1
-1 x_5_22_0 +1 x_5_22_1 +0 x_5_22_2 -1 x_5_22_3 +1 x_5_11_0_sb +0 x_5_11_1_sb +0 x_5_11_2_sb +0 x_5_11_3_sb +0 p0_5_11 +1 p1_5_11 >= -1
+0 x_5_22_0 -1 x_5_22_1 +0 x_5_22_2 -1 x_5_22_3 +0 x_5_11_0_sb -1 x_5_11_1_sb +0 x_5_11_2_sb -1 x_5_11_3_sb +0 p0_5_11 +1 p1_5_11 >= -3
+1 x_5_22_0 +1 x_5_22_1 +0 x_5_22_2 +1 x_5_22_3 +0 x_5_11_0_sb +0 x_5_11_1_sb -1 x_5_11_2_sb +0 x_5_11_3_sb +0 p0_5_11 +0 p1_5_11 >= 0
-1 x_5_22_0 +0 x_5_22_1 +1 x_5_22_2 -1 x_5_22_3 +0 x_5_11_0_sb -1 x_5_11_1_sb -1 x_5_11_2_sb +0 x_5_11_3_sb +0 p0_5_11 -1 p1_5_11 >= -4
+1 x_5_22_0 +1 x_5_22_1 +0 x_5_22_2 -1 x_5_22_3 +1 x_5_11_0_sb +1 x_5_11_1_sb +0 x_5_11_2_sb -1 x_5_11_3_sb +0 p0_5_11 -1 p1_5_11 >= -2
+1 x_5_22_0 +0 x_5_22_1 +1 x_5_22_2 +0 x_5_22_3 +0 x_5_11_0_sb +1 x_5_11_1_sb +1 x_5_11_2_sb +1 x_5_11_3_sb +0 p0_5_11 -1 p1_5_11 >= 0
+1 x_5_22_0 +0 x_5_22_1 -1 x_5_22_2 -1 x_5_22_3 -1 x_5_11_0_sb -1 x_5_11_1_sb +0 x_5_11_2_sb -1 x_5_11_3_sb +0 p0_5_11 -1 p1_5_11 >= -5
+0 x_5_22_0 +0 x_5_22_1 +1 x_5_22_2 +1 x_5_22_3 -1 x_5_11_0_sb +0 x_5_11_1_sb -1 x_5_11_2_sb +0 x_5_11_3_sb +0 p0_5_11 -1 p1_5_11 >= -2
+0 x_5_22_0 +0 x_5_22_1 +1 x_5_22_2 +0 x_5_22_3 +1 x_5_11_0_sb -1 x_5_11_1_sb +0 x_5_11_2_sb -1 x_5_11_3_sb +0 p0_5_11 +0 p1_5_11 >= -1
+0 x_5_22_0 -1 x_5_22_1 +0 x_5_22_2 -1 x_5_22_3 +0 x_5_11_0_sb +1 x_5_11_1_sb +0 x_5_11_2_sb +1 x_5_11_3_sb +0 p0_5_11 +1 p1_5_11 >= -1
+0 x_5_22_0 +1 x_5_22_1 +0 x_5_22_2 +1 x_5_22_3 +0 x_5_11_0_sb -1 x_5_11_1_sb +0 x_5_11_2_sb -1 x_5_11_3_sb +0 p0_5_11 +1 p1_5_11 >= -1
+1 x_5_22_0 -1 x_5_22_1 +1 x_5_22_2 -1 x_5_22_3 +1 x_5_11_0_sb +0 x_5_11_1_sb +0 x_5_11_2_sb +0 x_5_11_3_sb +0 p0_5_11 +0 p1_5_11 >= -1
+1 x_5_22_0 +0 x_5_22_1 +0 x_5_22_2 +0 x_5_22_3 +1 x_5_11_0_sb -1 x_5_11_1_sb +1 x_5_11_2_sb -1 x_5_11_3_sb +0 p0_5_11 +0 p1_5_11 >= -1
+0 x_5_22_0 -1 x_5_22_1 +0 x_5_22_2 -1 x_5_22_3 +1 x_5_11_0_sb -1 x_5_11_1_sb -1 x_5_11_2_sb -1 x_5_11_3_sb +0 p0_5_11 +0 p1_5_11 >= -4
+1 x_5_22_0 +0 x_5_22_1 +0 x_5_22_2 +1 x_5_22_3 +0 x_5_11_0_sb -1 x_5_11_1_sb -1 x_5_11_2_sb +1 x_5_11_3_sb +0 p0_5_11 -1 p1_5_11 >= -2
+0 x_5_22_0 +0 x_5_22_1 -1 x_5_22_2 +1 x_5_22_3 -1 x_5_11_0_sb +1 x_5_11_1_sb +0 x_5_11_2_sb -1 x_5_11_3_sb +0 p0_5_11 -1 p1_5_11 >= -3
+0 x_5_22_0 +1 x_5_22_1 +0 x_5_22_2 +1 x_5_22_3 -1 x_5_11_0_sb -1 x_5_11_1_sb +0 x_5_11_2_sb +1 x_5_11_3_sb +0 p0_5_11 -1 p1_5_11 >= -2
-1 x_5_22_0 +1 x_5_22_1 +0 x_5_22_2 -1 x_5_22_3 +0 x_5_11_0_sb +0 x_5_11_1_sb -1 x_5_11_2_sb +1 x_5_11_3_sb +0 p0_5_11 -1 p1_5_11 >= -3
-1 x_5_22_0 +0 x_5_22_1 +0 x_5_22_2 +0 x_5_22_3 -1 x_5_11_0_sb +1 x_5_11_1_sb +0 x_5_11_2_sb -1 x_5_11_3_sb +0 p0_5_11 -1 p1_5_11 >= -3
+0 x_5_22_0 +0 x_5_22_1 -1 x_5_22_2 +0 x_5_22_3 +1 x_5_11_0_sb +1 x_5_11_1_sb +0 x_5_11_2_sb +1 x_5_11_3_sb +0 p0_5_11 +0 p1_5_11 >= 0
+0 x_5_24_0 +0 x_5_24_1 +0 x_5_24_2 +0 x_5_24_3 +0 x_5_12_0_sb +0 x_5_12_1_sb +0 x_5_12_2_sb +0 x_5_12_3_sb -1 p0_5_12 -1 p1_5_12 >= -1
+0 x_5_24_0 +0 x_5_24_1 +0 x_5_24_2 +0 x_5_24_3 +0 x_5_12_0_sb +0 x_5_12_1_sb +0 x_5_12_2_sb -1 x_5_12_3_sb +1 p0_5_12 +1 p1_5_12 >= 0
+0 x_5_24_0 +0 x_5_24_1 +0 x_5_24_2 +0 x_5_24_3 +0 x_5_12_0_sb -1 x_5_12_1_sb +0 x_5_12_2_sb +0 x_5_12_3_sb +1 p0_5_12 +1 p1_5_12 >= 0
+0 x_5_24_0 +0 x_5_24_1 +0 x_5_24_2 +0 x_5_24_3 -1 x_5_12_0_sb +0 x_5_12_1_sb +0 x_5_12_2_sb +0 x_5_12_3_sb +1 p0_5_12 +1 p1_5_12 >= 0
+0 x_5_24_0 +0 x_5_24_1 +0 x_5_24_2 +0 x_5_24_3 +1 x_5_12_0_sb +1 x_5_12_1_sb +1 x_5_12_2_sb +1 x_5_12_3_sb +0 p0_5_12 -1 p1_5_12 >= 0
+0 x_5_24_0 +0 x_5_24_1 +0 x_5_24_2 -1 x_5_24_3 +1 x_5_12_0_sb +1 x_5_12_1_sb +0 x_5_12_2_sb +1 x_5_12_3_sb +0 p0_5_12 +1 p1_5_12 >= 0
-1 x_5_24_0 +0 x_5_24_1 -1 x_5_24_2 +0 x_5_24_3 +1 x_5_12_0_sb +0 x_5_12_1_sb +0 x_5_12_2_sb +1 x_5_12_3_sb +0 p0_5_12 -1 p1_5_12 >= -2
+1 x_5_24_0 +0 x_5_24_1 +1 x_5_24_2 +0 x_5_24_3 +1 x_5_12_0_sb +0 x_5_12_1_sb +1 x_5_12_2_sb +0 x_5_12_3_sb +0 p0_5_12 -1 p1_5_12 >= 0
+0 x_5_24_0 +0 x_5_24_1 +0 x_5_24_2 +1 x_5_24_3 +0 x_5_12_0_sb +1 x_5_12_1_sb -1 x_5_12_2_sb -1 x_5_12_3_sb +0 p0_5_12 -1 p1_5_12 >= -2
-1 x_5_24_0 +0 x_5_24_1 +0 x_5_24_2 -1 x_5_24_3 -1 x_5_12_0_sb +0 x_5_12_1_sb +0 x_5_12_2_sb +1 x_5_12_3_sb +0 p0_5_12 -1 p1_5_12 >= -3
+0 x_5_24_0 +0 x_5_24_1 +0 x_5_24_2 +1 x_5_24_3 -1 x_5_12_0_sb -1 x_5_12_1_sb -1 x_5_12_2_sb +0 x_5_12_3_sb +0 p0_5_12 -1 p1_5_12 >= -3
+1 x_5_24_0 +1 x_5_24_1 +0 x_5_24_2 +1 x_5_24_3 +0 x_5_12_0_sb +0 x_5_12_1_sb +0 x_5_12_2_sb +0 x_5_12_3_sb -1 p0_5_12 +0 p1_5_12 >= 0
+0 x_5_24_0 +0 x_5_24_1 +1 x_5_24_2 +1 x_5_24_3 +0 x_5_12_0_sb -1 x_5_12_1_sb +1 x_5_12_2_sb +0 x_5_12_3_sb +0 p0_5_12 -1 p1_5_12 >= -1
+0 x_5_24_0 +1 x_5_24_1 +0 x_5_24_2 -1 x_5_24_3 -1 x_5_12_0_sb +0 x_5_12_1_sb -1 x_5_12_2_sb +0 x_5_12_3_sb +0 p0_5_12 -1 p1_5_12 >= -3
+0 x_5_24_0 +1 x_5_24_1 +1 x_5_24_2 +0 x_5_24_3 +0 x_5_12_0_sb +0 x_5_12_1_sb +1 x_5_12_2_sb -1 x_5_12_3_sb +0 p0_5_12 -1 p1_5_12 >= -1
-1 x_5_24_0 +0 x_5_24_1 -1 x_5_24_2 +0 x_5_24_3 -1 x_5_12_0_sb +0 x_5_12_1_sb +1 x_5_12_2_sb +0 x_5_12_3_sb +0 p0_5_12 -1 p1_5_12 >= -3
+0 x_5_24_0 -1 x_5_24_1 -1 x_5_24_2 +0 x_5_24_3 +0 x_5_12_0_sb +1 x_5_12_1_sb +0 x_5_12_2_sb +1 x_5_12_3_sb +0 p0_5_12 -1 p1_5_12 >= -2
+0 x_5_24_0 -1 x_5_24_1 +0 x_5_24_2 +0 x_5_24_3 +1 x_5_12_0_sb +1 x_5_12_1_sb +0 x_5_12_2_sb +1 x_5_12_3_sb +0 p0_5_12 +1 p1_5_12 >= 0
-1 x_5_24_0 -1 x_5_24_1 +0 x_5_24_2 +1 x_5_24_3 +0 x_5_12_0_sb +1 x_5_12_1_sb +0 x_5_12_2_sb +1 x_5_12_3_sb +0 p0_5_12 -1 p1_5_12 >= -2
+0 x_5_24_0 -1 x_5_24_1 +0 x_5_24_2 +0 x_5_24_3 +1 x_5_12_0_sb +0 x_5_12_1_sb +1 x_5_12_2_sb +1 x_5_12_3_sb +0 p0_5_12 -1 p1_5_12 >= -1
-1 x_5_24_0 +0 x_5_24_1 -1 x_5_24_2 +0 x_5_24_3 +1 x_5_12_0_sb +1 x_5_12_1_sb +0 x_5_12_2_sb +0 x_5_12_3_sb +0 p0_5_12 -1 p1_5_12 >= -2
+0 x_5_24_0 +1 x_5_24_1 -1 x_5_24_2 -1 x_5_24_3 +0 x_5_12_0_sb +0 x_5_12_1_sb +0 x_5_12_2_sb +1 x_5_12_3_sb +0 p0_5_12 -1 p1_5_12 >= -2
-1 x_5_24_0 -1 x_5_24_1 +0 x_5_24_2 -1 x_5_24_3 +0 x_5_12_0_sb +1 x_5_12_1_sb +0 x_5_12_2_sb -1 x_5_12_3_sb +0 p0_5_12 -1 p1_5_12 >= -4
-1 x_5_24_0 +1 x_5_24_1 +0 x_5_24_2 +1 x_5_24_3 +0 x_5_12_0_sb +1 x_5_12_1_sb +0 x_5_12_2_sb +1 x_5_12_3_sb +0 p0_5_12 +1 p1_5_12 >= 0
+0 x_5_24_0 +0 x_5_24_1 +0 x_5_24_2 +0 x_5_24_3 +1 x_5_12_0_sb -1 x_5_12_1_sb +0 x_5_12_2_sb -1 x_5_12_3_sb +0 p0_5_12 +1 p1_5_12 >= -1
+1 x_5_24_0 +0 x_5_24_1 +1 x_5_24_2 +0 x_5_24_3 +1 x_5_12_0_sb -1 x_5_12_1_sb +0 x_5_12_2_sb +0 x_5_12_3_sb +0 p0_5_12 -1 p1_5_12 >= -1
+0 x_5_24_0 +1 x_5_24_1 +0 x_5_24_2 +1 x_5_24_3 +0 x_5_12_0_sb -1 x_5_12_1_sb -1 x_5_12_2_sb +0 x_5_12_3_sb +0 p0_5_12 -1 p1_5_12 >= -2
+1 x_5_24_0 -1 x_5_24_1 +0 x_5_24_2 -1 x_5_24_3 +0 x_5_12_0_sb +0 x_5_12_1_sb +1 x_5_12_2_sb +0 x_5_12_3_sb +0 p0_5_12 +0 p1_5_12 >= -1
+1 x_5_24_0 -1 x_5_24_1 -1 x_5_24_2 +0 x_5_24_3 +0 x_5_12_0_sb +0 x_5_12_1_sb +1 x_5_12_2_sb -1 x_5_12_3_sb +0 p0_5_12 -1 p1_5_12 >= -3
+1 x_5_24_0 -1 x_5_24_1 +0 x_5_24_2 -1 x_5_24_3 +0 x_5_12_0_sb +0 x_5_12_1_sb +0 x_5_12_2_sb +0 x_5_12_3_sb +0 p0_5_12 +1 p1_5_12 >= -1
+1 x_5_24_0 +0 x_5_24_1 +0 x_5_24_2 +0 x_5_24_3 -1 x_5_12_0_sb +1 x_5_12_1_sb +0 x_5_12_2_sb -1 x_5_12_3_sb +0 p0_5_12 +1 p1_5_12 >= -1
+1 x_5_24_0 +0 x_5_24_1 +0 x_5_24_2 +0 x_5_24_3 -1 x_5_12_0_sb -1 x_5_12_1_sb +0 x_5_12_2_sb +1 x_5_12_3_sb +0 p0_5_12 +1 p1_5_12 >= -1
-1 x_5_24_0 -1 x_5_24_1 +0 x_5_24_2 +1 x_5_24_3 +1 x_5_12_0_sb +0 x_5_12_1_sb +0 x_5_12_2_sb +0 x_5_12_3_sb +0 p0_5_12 +1 p1_5_12 >= -1
-1 x_5_24_0 +1 x_5_24_1 +0 x_5_24_2 -1 x_5_24_3 +1 x_5_12_0_sb +0 x_5_12_1_sb +0 x_5_12_2_sb +0 x_5_12_3_sb +0 p0_5_12 +1 p1_5_12 >= -1
+0 x_5_24_0 -1 x_5_24_1 +0 x_5_24_2 -1 x_5_24_3 +0 x_5_12_0_sb -1 x_5_12_1_sb +0 x_5_12_2_sb -1 x_5_12_3_sb +0 p0_5_12 +1 p1_5_12 >= -3
+1 x_5_24_0 +1 x_5_24_1 +0 x_5_24_2 +1 x_5_24_3 +0 x_5_12_0_sb +0 x_5_12_1_sb -1 x_5_12_2_sb +0 x_5_12_3_sb +0 p0_5_12 +0 p1_5_12 >= 0
-1 x_5_24_0 +0 x_5_24_1 +1 x_5_24_2 -1 x_5_24_3 +0 x_5_12_0_sb -1 x_5_12_1_sb -1 x_5_12_2_sb +0 x_5_12_3_sb +0 p0_5_12 -1 p1_5_12 >= -4
+1 x_5_24_0 +1 x_5_24_1 +0 x_5_24_2 -1 x_5_24_3 +1 x_5_12_0_sb +1 x_5_12_1_sb +0 x_5_12_2_sb -1 x_5_12_3_sb +0 p0_5_12 -1 p1_5_12 >= -2
+1 x_5_24_0 +0 x_5_24_1 +1 x_5_24_2 +0 x_5_24_3 +0 x_5_12_0_sb +1 x_5_12_1_sb +1 x_5_12_2_sb +1 x_5_12_3_sb +0 p0_5_12 -1 p1_5_12 >= 0
+1 x_5_24_0 +0 x_5_24_1 -1 x_5_24_2 -1 x_5_24_3 -1 x_5_12_0_sb -1 x_5_12_1_sb +0 x_5_12_2_sb -1 x_5_12_3_sb +0 p0_5_12 -1 p1_5_12 >= -5
+0 x_5_24_0 +0 x_5_24_1 +1 x_5_24_2 +1 x_5_24_3 -1 x_5_12_0_sb +0 x_5_12_1_sb -1 x_5_12_2_sb +0 x_5_12_3_sb +0 p0_5_12 -1 p1_5_12 >= -2
+0 x_5_24_0 +0 x_5_24_1 +1 x_5_24_2 +0 x_5_24_3 +1 x_5_12_0_sb -1 x_5_12_1_sb +0 x_5_12_2_sb -1 x_5_12_3_sb +0 p0_5_12 +0 p1_5_12 >= -1
+0 x_5_24_0 -1 x_5_24_1 +0 x_5_24_2 -1 x_5_24_3 +0 x_5_12_0_sb +1 x_5_12_1_sb +0 x_5_12_2_sb +1 x_5_12_3_sb +0 p0_5_12 +1 p1_5_12 >= -1
+0 x_5_24_0 +1 x_5_24_1 +0 x_5_24_2 +1 x_5_24_3 +0 x_5_12_0_sb -1 x_5_12_1_sb +0 x_5_12_2_sb -1 x_5_12_3_sb +0 p0_5_12 +1 p1_5_12 >= -1
+1 x_5_24_0 -1 x_5_24_1 +1 x_5_24_2 -1 x_5_24_3 +1 x_5_12_0_sb +0 x_5_12_1_sb +0 x_5_12_2_sb +0 x_5_12_3_sb +0 p0_5_12 +0 p1_5_12 >= -1
+1 x_5_24_0 +0 x_5_24_1 +0 x_5_24_2 +0 x_5_24_3 +1 x_5_12_0_sb -1 x_5_12_1_sb +1 x_5_12_2_sb -1 x_5_12_3_sb +0 p0_5_12 +0 p1_5_12 >= -1
+0 x_5_24_0 -1 x_5_24_1 +0 x_5_24_2 -1 x_5_24_3 +1 x_5_12_0_sb -1 x_5_12_1_sb -1 x_5_12_2_sb -1 x_5_12_3_sb +0 p0_5_12 +0 p1_5_12 >= -4
+1 x_5_24_0 +0 x_5_24_1 +0 x_5_24_2 +1 x_5_24_3 +0 x_5_12_0_sb -1 x_5_12_1_sb -1 x_5_12_2_sb +1 x_5_12_3_sb +0 p0_5_12 -1 p1_5_12 >= -2
+0 x_5_24_0 +0 x_5_24_1 -1 x_5_24_2 +1 x_5_24_3 -1 x_5_12_0_sb +1 x_5_12_1_sb +0 x_5_12_2_sb -1 x_5_12_3_sb +0 p0_5_12 -1 p1_5_12 >= -3
+0 x_5_24_0 +1 x_5_24_1 +0 x_5_24_2 +1 x_5_24_3 -1 x_5_12_0_sb -1 x_5_12_1_sb +0 x_5_12_2_sb +1 x_5_12_3_sb +0 p0_5_12 -1 p1_5_12 >= -2
-1 x_5_24_0 +1 x_5_24_1 +0 x_5_24_2 -1 x_5_24_3 +0 x_5_12_0_sb +0 x_5_12_1_sb -1 x_5_12_2_sb +1 x_5_12_3_sb +0 p0_5_12 -1 p1_5_12 >= -3
-1 x_5_24_0 +0 x_5_24_1 +0 x_5_24_2 +0 x_5_24_3 -1 x_5_12_0_sb +1 x_5_12_1_sb +0 x_5_12_2_sb -1 x_5_12_3_sb +0 p0_5_12 -1 p1_5_12 >= -3
+0 x_5_24_0 +0 x_5_24_1 -1 x_5_24_2 +0 x_5_24_3 +1 x_5_12_0_sb +1 x_5_12_1_sb +0 x_5_12_2_sb +1 x_5_12_3_sb +0 p0_5_12 +0 p1_5_12 >= 0
+0 x_5_26_0 +0 x_5_26_1 +0 x_5_26_2 +0 x_5_26_3 +0 x_5_13_0_sb +0 x_5_13_1_sb +0 x_5_13_2_sb +0 x_5_13_3_sb -1 p0_5_13 -1 p1_5_13 >= -1
+0 x_5_26_0 +0 x_5_26_1 +0 x_5_26_2 +0 x_5_26_3 +0 x_5_13_0_sb +0 x_5_13_1_sb +0 x_5_13_2_sb -1 x_5_13_3_sb +1 p0_5_13 +1 p1_5_13 >= 0
+0 x_5_26_0 +0 x_5_26_1 +0 x_5_26_2 +0 x_5_26_3 +0 x_5_13_0_sb -1 x_5_13_1_sb +0 x_5_13_2_sb +0 x_5_13_3_sb +1 p0_5_13 +1 p1_5_13 >= 0
+0 x_5_26_0 +0 x_5_26_1 +0 x_5_26_2 +0 x_5_26_3 -1 x_5_13_0_sb +0 x_5_13_1_sb +0 x_5_13_2_sb +0 x_5_13_3_sb +1 p0_5_13 +1 p1_5_13 >= 0
+0 x_5_26_0 +0 x_5_26_1 +0 x_5_26_2 +0 x_5_26_3 +1 x_5_13_0_sb +1 x_5_13_1_sb +1 x_5_13_2_sb +1 x_5_13_3_sb +0 p0_5_13 -1 p1_5_13 >= 0
+0 x_5_26_0 +0 x_5_26_1 +0 x_5_26_2 -1 x_5_26_3 +1 x_5_13_0_sb +1 x_5_13_1_sb +0 x_5_13_2_sb +1 x_5_13_3_sb +0 p0_5_13 +1 p1_5_13 >= 0
-1 x_5_26_0 +0 x_5_26_1 -1 x_5_26_2 +0 x_5_26_3 +1 x_5_13_0_sb +0 x_5_13_1_sb +0 x_5_13_2_sb +1 x_5_13_3_sb +0 p0_5_13 -1 p1_5_13 >= -2
+1 x_5_26_0 +0 x_5_26_1 +1 x_5_26_2 +0 x_5_26_3 +1 x_5_13_0_sb +0 x_5_13_1_sb +1 x_5_13_2_sb +0 x_5_13_3_sb +0 p0_5_13 -1 p1_5_13 >= 0
+0 x_5_26_0 +0 x_5_26_1 +0 x_5_26_2 +1 x_5_26_3 +0 x_5_13_0_sb +1 x_5_13_1_sb -1 x_5_13_2_sb -1 x_5_13_3_sb +0 p0_5_13 -1 p1_5_13 >= -2
-1 x_5_26_0 +0 x_5_26_1 +0 x_5_26_2 -1 x_5_26_3 -1 x_5_13_0_sb +0 x_5_13_1_sb +0 x_5_13_2_sb +1 x_5_13_3_sb +0 p0_5_13 -1 p1_5_13 >= -3
+0 x_5_26_0 +0 x_5_26_1 +0 x_5_26_2 +1 x_5_26_3 -1 x_5_13_0_sb -1 x_5_13_1_sb -1 x_5_13_2_sb +0 x_5_13_3_sb +0 p0_5_13 -1 p1_5_13 >= -3
+1 x_5_26_0 +1 x_5_26_1 +0 x_5_26_2 +1 x_5_26_3 +0 x_5_13_0_sb +0 x_5_13_1_sb +0 x_5_13_2_sb +0 x_5_13_3_sb -1 p0_5_13 +0 p1_5_13 >= 0
+0 x_5_26_0 +0 x_5_26_1 +1 x_5_26_2 +1 x_5_26_3 +0 x_5_13_0_sb -1 x_5_13_1_sb +1 x_5_13_2_sb +0 x_5_13_3_sb +0 p0_5_13 -1 p1_5_13 >= -1
+0 x_5_26_0 +1 x_5_26_1 +0 x_5_26_2 -1 x_5_26_3 -1 x_5_13_0_sb +0 x_5_13_1_sb -1 x_5_13_2_sb +0 x_5_13_3_sb +0 p0_5_13 -1 p1_5_13 >= -3
+0 x_5_26_0 +1 x_5_26_1 +1 x_5_26_2 +0 x_5_26_3 +0 x_5_13_0_sb +0 x_5_13_1_sb +1 x_5_13_2_sb -1 x_5_13_3_sb +0 p0_5_13 -1 p1_5_13 >= -1
-1 x_5_26_0 +0 x_5_26_1 -1 x_5_26_2 +0 x_5_26_3 -1 x_5_13_0_sb +0 x_5_13_1_sb +1 x_5_13_2_sb +0 x_5_13_3_sb +0 p0_5_13 -1 p1_5_13 >= -3
+0 x_5_26_0 -1 x_5_26_1 -1 x_5_26_2 +0 x_5_26_3 +0 x_5_13_0_sb +1 x_5_13_1_sb +0 x_5_13_2_sb +1 x_5_13_3_sb +0 p0_5_13 -1 p1_5_13 >= -2
+0 x_5_26_0 -1 x_5_26_1 +0 x_5_26_2 +0 x_5_26_3 +1 x_5_13_0_sb +1 x_5_13_1_sb +0 x_5_13_2_sb +1 x_5_13_3_sb +0 p0_5_13 +1 p1_5_13 >= 0
-1 x_5_26_0 -1 x_5_26_1 +0 x_5_26_2 +1 x_5_26_3 +0 x_5_13_0_sb +1 x_5_13_1_sb +0 x_5_13_2_sb +1 x_5_13_3_sb +0 p0_5_13 -1 p1_5_13 >= -2
+0 x_5_26_0 -1 x_5_26_1 +0 x_5_26_2 +0 x_5_26_3 +1 x_5_13_0_sb +0 x_5_13_1_sb +1 x_5_13_2_sb +1 x_5_13_3_sb +0 p0_5_13 -1 p1_5_13 >= -1
-1 x_5_26_0 +0 x_5_26_1 -1 x_5_26_2 +0 x_5_26_3 +1 x_5_13_0_sb +1 x_5_13_1_sb +0 x_5_13_2_sb +0 x_5_13_3_sb +0 p0_5_13 -1 p1_5_13 >= -2
+0 x_5_26_0 +1 x_5_26_1 -1 x_5_26_2 -1 x_5_26_3 +0 x_5_13_0_sb +0 x_5_13_1_sb +0 x_5_13_2_sb +1 x_5_13_3_sb +0 p0_5_13 -1 p1_5_13 >= -2
-1 x_5_26_0 -1 x_5_26_1 +0 x_5_26_2 -1 x_5_26_3 +0 x_5_13_0_sb +1 x_5_13_1_sb +0 x_5_13_2_sb -1 x_5_13_3_sb +0 p0_5_13 -1 p1_5_13 >= -4
-1 x_5_26_0 +1 x_5_26_1 +0 x_5_26_2 +1 x_5_26_3 +0 x_5_13_0_sb +1 x_5_13_1_sb +0 x_5_13_2_sb +1 x_5_13_3_sb +0 p0_5_13 +1 p1_5_13 >= 0
+0 x_5_26_0 +0 x_5_26_1 +0 x_5_26_2 +0 x_5_26_3 +1 x_5_13_0_sb -1 x_5_13_1_sb +0 x_5_13_2_sb -1 x_5_13_3_sb +0 p0_5_13 +1 p1_5_13 >= -1
+1 x_5_26_0 +0 x_5_26_1 +1 x_5_26_2 +0 x_5_26_3 +1 x_5_13_0_sb -1 x_5_13_1_sb +0 x_5_13_2_sb +0 x_5_13_3_sb +0 p0_5_13 -1 p1_5_13 >= -1
+0 x_5_26_0 +1 x_5_26_1 +0 x_5_26_2 +1 x_5_26_3 +0 x_5_13_0_sb -1 x_5_13_1_sb -1 x_5_13_2_sb +0 x_5_13_3_sb +0 p0_5_13 -1 p1_5_13 >= -2
+1 x_5_26_0 -1 x_5_26_1 +0 x_5_26_2 -1 x_5_26_3 +0 x_5_13_0_sb +0 x_5_13_1_sb +1 x_5_13_2_sb +0 x_5_13_3_sb +0 p0_5_13 +0 p1_5_13 >= -1
+1 x_5_26_0 -1 x_5_26_1 -1 x_5_26_2 +0 x_5_26_3 +0 x_5_13_0_sb +0 x_5_13_1_sb +1 x_5_13_2_sb -1 x_5_13_3_sb +0 p0_5_13 -1 p1_5_13 >= -3
+1 x_5_26_0 -1 x_5_26_1 +0 x_5_26_2 -1 x_5_26_3 +0 x_5_13_0_sb +0 x_5_13_1_sb +0 x_5_13_2_sb +0 x_5_13_3_sb +0 p0_5_13 +1 p1_5_13 >= -1
+1 x_5_26_0 +0 x_5_26_1 +0 x_5_26_2 +0 x_5_26_3 -1 x_5_13_0_sb +1 x_5_13_1_sb +0 x_5_13_2_sb -1 x_5_13_3_sb +0 p0_5_13 +1 p1_5_13 >= -1
+1 x_5_26_0 +0 x_5_26_1 +0 x_5_26_2 +0 x_5_26_3 -1 x_5_13_0_sb -1 x_5_13_1_sb +0 x_5_13_2_sb +1 x_5_13_3_sb +0 p0_5_13 +1 p1_5_13 >= -1
-1 x_5_26_0 -1 x_5_26_1 +0 x_5_26_2 +1 x_5_26_3 +1 x_5_13_0_sb +0 x_5_13_1_sb +0 x_5_13_2_sb +0 x_5_13_3_sb +0 p0_5_13 +1 p1_5_13 >= -1
-1 x_5_26_0 +1 x_5_26_1 +0 x_5_26_2 -1 x_5_26_3 +1 x_5_13_0_sb +0 x_5_13_1_sb +0 x_5_13_2_sb +0 x_5_13_3_sb +0 p0_5_13 +1 p1_5_13 >= -1
+0 x_5_26_0 -1 x_5_26_1 +0 x_5_26_2 -1 x_5_26_3 +0 x_5_13_0_sb -1 x_5_13_1_sb +0 x_5_13_2_sb -1 x_5_13_3_sb +0 p0_5_13 +1 p1_5_13 >= -3
+1 x_5_26_0 +1 x_5_26_1 +0 x_5_26_2 +1 x_5_26_3 +0 x_5_13_0_sb +0 x_5_13_1_sb -1 x_5_13_2_sb +0 x_5_13_3_sb +0 p0_5_13 +0 p1_5_13 >= 0
-1 x_5_26_0 +0 x_5_26_1 +1 x_5_26_2 -1 x_5_26_3 +0 x_5_13_0_sb -1 x_5_13_1_sb -1 x_5_13_2_sb +0 x_5_13_3_sb +0 p0_5_13 -1 p1_5_13 >= -4
+1 x_5_26_0 +1 x_5_26_1 +0 x_5_26_2 -1 x_5_26_3 +1 x_5_13_0_sb +1 x_5_13_1_sb +0 x_5_13_2_sb -1 x_5_13_3_sb +0 p0_5_13 -1 p1_5_13 >= -2
+1 x_5_26_0 +0 x_5_26_1 +1 x_5_26_2 +0 x_5_26_3 +0 x_5_13_0_sb +1 x_5_13_1_sb +1 x_5_13_2_sb +1 x_5_13_3_sb +0 p0_5_13 -1 p1_5_13 >= 0
+1 x_5_26_0 +0 x_5_26_1 -1 x_5_26_2 -1 x_5_26_3 -1 x_5_13_0_sb -1 x_5_13_1_sb +0 x_5_13_2_sb -1 x_5_13_3_sb +0 p0_5_13 -1 p1_5_13 >= -5
+0 x_5_26_0 +0 x_5_26_1 +1 x_5_26_2 +1 x_5_26_3 -1 x_5_13_0_sb +0 x_5_13_1_sb -1 x_5_13_2_sb +0 x_5_13_3_sb +0 p0_5_13 -1 p1_5_13 >= -2
+0 x_5_26_0 +0 x_5_26_1 +1 x_5_26_2 +0 x_5_26_3 +1 x_5_13_0_sb -1 x_5_13_1_sb +0 x_5_13_2_sb -1 x_5_13_3_sb +0 p0_5_13 +0 p1_5_13 >= -1
+0 x_5_26_0 -1 x_5_26_1 +0 x_5_26_2 -1 x_5_26_3 +0 x_5_13_0_sb +1 x_5_13_1_sb +0 x_5_13_2_sb +1 x_5_13_3_sb +0 p0_5_13 +1 p1_5_13 >= -1
+0 x_5_26_0 +1 x_5_26_1 +0 x_5_26_2 +1 x_5_26_3 +0 x_5_13_0_sb -1 x_5_13_1_sb +0 x_5_13_2_sb -1 x_5_13_3_sb +0 p0_5_13 +1 p1_5_13 >= -1
+1 x_5_26_0 -1 x_5_26_1 +1 x_5_26_2 -1 x_5_26_3 +1 x_5_13_0_sb +0 x_5_13_1_sb +0 x_5_13_2_sb +0 x_5_13_3_sb +0 p0_5_13 +0 p1_5_13 >= -1
+1 x_5_26_0 +0 x_5_26_1 +0 x_5_26_2 +0 x_5_26_3 +1 x_5_13_0_sb -1 x_5_13_1_sb +1 x_5_13_2_sb -1 x_5_13_3_sb +0 p0_5_13 +0 p1_5_13 >= -1
+0 x_5_26_0 -1 x_5_26_1 +0 x_5_26_2 -1 x_5_26_3 +1 x_5_13_0_sb -1 x_5_13_1_sb -1 x_5_13_2_sb -1 x_5_13_3_sb +0 p0_5_13 +0 p1_5_13 >= -4
+1 x_5_26_0 +0 x_5_26_1 +0 x_5_26_2 +1 x_5_26_3 +0 x_5_13_0_sb -1 x_5_13_1_sb -1 x_5_13_2_sb +1 x_5_13_3_sb +0 p0_5_13 -1 p1_5_13 >= -2
+0 x_5_26_0 +0 x_5_26_1 -1 x_5_26_2 +1 x_5_26_3 -1 x_5_13_0_sb +1 x_5_13_1_sb +0 x_5_13_2_sb -1 x_5_13_3_sb +0 p0_5_13 -1 p1_5_13 >= -3
+0 x_5_26_0 +1 x_5_26_1 +0 x_5_26_2 +1 x_5_26_3 -1 x_5_13_0_sb -1 x_5_13_1_sb +0 x_5_13_2_sb +1 x_5_13_3_sb +0 p0_5_13 -1 p1_5_13 >= -2
-1 x_5_26_0 +1 x_5_26_1 +0 x_5_26_2 -1 x_5_26_3 +0 x_5_13_0_sb +0 x_5_13_1_sb -1 x_5_13_2_sb +1 x_5_13_3_sb +0 p0_5_13 -1 p1_5_13 >= -3
-1 x_5_26_0 +0 x_5_26_1 +0 x_5_26_2 +0 x_5_26_3 -1 x_5_13_0_sb +1 x_5_13_1_sb +0 x_5_13_2_sb -1 x_5_13_3_sb +0 p0_5_13 -1 p1_5_13 >= -3
+0 x_5_26_0 +0 x_5_26_1 -1 x_5_26_2 +0 x_5_26_3 +1 x_5_13_0_sb +1 x_5_13_1_sb +0 x_5_13_2_sb +1 x_5_13_3_sb +0 p0_5_13 +0 p1_5_13 >= 0
+0 x_5_28_0 +0 x_5_28_1 +0 x_5_28_2 +0 x_5_28_3 +0 x_5_14_0_sb +0 x_5_14_1_sb +0 x_5_14_2_sb +0 x_5_14_3_sb -1 p0_5_14 -1 p1_5_14 >= -1
+0 x_5_28_0 +0 x_5_28_1 +0 x_5_28_2 +0 x_5_28_3 +0 x_5_14_0_sb +0 x_5_14_1_sb +0 x_5_14_2_sb -1 x_5_14_3_sb +1 p0_5_14 +1 p1_5_14 >= 0
+0 x_5_28_0 +0 x_5_28_1 +0 x_5_28_2 +0 x_5_28_3 +0 x_5_14_0_sb -1 x_5_14_1_sb +0 x_5_14_2_sb +0 x_5_14_3_sb +1 p0_5_14 +1 p1_5_14 >= 0
+0 x_5_28_0 +0 x_5_28_1 +0 x_5_28_2 +0 x_5_28_3 -1 x_5_14_0_sb +0 x_5_14_1_sb +0 x_5_14_2_sb +0 x_5_14_3_sb +1 p0_5_14 +1 p1_5_14 >= 0
+0 x_5_28_0 +0 x_5_28_1 +0 x_5_28_2 +0 x_5_28_3 +1 x_5_14_0_sb +1 x_5_14_1_sb +1 x_5_14_2_sb +1 x_5_14_3_sb +0 p0_5_14 -1 p1_5_14 >= 0
+0 x_5_28_0 +0 x_5_28_1 +0 x_5_28_2 -1 x_5_28_3 +1 x_5_14_0_sb +1 x_5_14_1_sb +0 x_5_14_2_sb +1 x_5_14_3_sb +0 p0_5_14 +1 p1_5_14 >= 0
-1 x_5_28_0 +0 x_5_28_1 -1 x_5_28_2 +0 x_5_28_3 +1 x_5_14_0_sb +0 x_5_14_1_sb +0 x_5_14_2_sb +1 x_5_14_3_sb +0 p0_5_14 -1 p1_5_14 >= -2
+1 x_5_28_0 +0 x_5_28_1 +1 x_5_28_2 +0 x_5_28_3 +1 x_5_14_0_sb +0 x_5_14_1_sb +1 x_5_14_2_sb +0 x_5_14_3_sb +0 p0_5_14 -1 p1_5_14 >= 0
+0 x_5_28_0 +0 x_5_28_1 +0 x_5_28_2 +1 x_5_28_3 +0 x_5_14_0_sb +1 x_5_14_1_sb -1 x_5_14_2_sb -1 x_5_14_3_sb +0 p0_5_14 -1 p1_5_14 >= -2
-1 x_5_28_0 +0 x_5_28_1 +0 x_5_28_2 -1 x_5_28_3 -1 x_5_14_0_sb +0 x_5_14_1_sb +0 x_5_14_2_sb +1 x_5_14_3_sb +0 p0_5_14 -1 p1_5_14 >= -3
+0 x_5_28_0 +0 x_5_28_1 +0 x_5_28_2 +1 x_5_28_3 -1 x_5_14_0_sb -1 x_5_14_1_sb -1 x_5_14_2_sb +0 x_5_14_3_sb +0 p0_5_14 -1 p1_5_14 >= -3
+1 x_5_28_0 +1 x_5_28_1 +0 x_5_28_2 +1 x_5_28_3 +0 x_5_14_0_sb +0 x_5_14_1_sb +0 x_5_14_2_sb +0 x_5_14_3_sb -1 p0_5_14 +0 p1_5_14 >= 0
+0 x_5_28_0 +0 x_5_28_1 +1 x_5_28_2 +1 x_5_28_3 +0 x_5_14_0_sb -1 x_5_14_1_sb +1 x_5_14_2_sb +0 x_5_14_3_sb +0 p0_5_14 -1 p1_5_14 >= -1
+0 x_5_28_0 +1 x_5_28_1 +0 x_5_28_2 -1 x_5_28_3 -1 x_5_14_0_sb +0 x_5_14_1_sb -1 x_5_14_2_sb +0 x_5_14_3_sb +0 p0_5_14 -1 p1_5_14 >= -3
+0 x_5_28_0 +1 x_5_28_1 +1 x_5_28_2 +0 x_5_28_3 +0 x_5_14_0_sb +0 x_5_14_1_sb +1 x_5_14_2_sb -1 x_5_14_3_sb +0 p0_5_14 -1 p1_5_14 >= -1
-1 x_5_28_0 +0 x_5_28_1 -1 x_5_28_2 +0 x_5_28_3 -1 x_5_14_0_sb +0 x_5_14_1_sb +1 x_5_14_2_sb +0 x_5_14_3_sb +0 p0_5_14 -1 p1_5_14 >= -3
+0 x_5_28_0 -1 x_5_28_1 -1 x_5_28_2 +0 x_5_28_3 +0 x_5_14_0_sb +1 x_5_14_1_sb +0 x_5_14_2_sb +1 x_5_14_3_sb +0 p0_5_14 -1 p1_5_14 >= -2
+0 x_5_28_0 -1 x_5_28_1 +0 x_5_28_2 +0 x_5_28_3 +1 x_5_14_0_sb +1 x_5_14_1_sb +0 x_5_14_2_sb +1 x_5_14_3_sb +0 p0_5_14 +1 p1_5_14 >= 0
-1 x_5_28_0 -1 x_5_28_1 +0 x_5_28_2 +1 x_5_28_3 +0 x_5_14_0_sb +1 x_5_14_1_sb +0 x_5_14_2_sb +1 x_5_14_3_sb +0 p0_5_14 -1 p1_5_14 >= -2
+0 x_5_28_0 -1 x_5_28_1 +0 x_5_28_2 +0 x_5_28_3 +1 x_5_14_0_sb +0 x_5_14_1_sb +1 x_5_14_2_sb +1 x_5_14_3_sb +0 p0_5_14 -1 p1_5_14 >= -1
-1 x_5_28_0 +0 x_5_28_1 -1 x_5_28_2 +0 x_5_28_3 +1 x_5_14_0_sb +1 x_5_14_1_sb +0 x_5_14_2_sb +0 x_5_14_3_sb +0 p0_5_14 -1 p1_5_14 >= -2
+0 x_5_28_0 +1 x_5_28_1 -1 x_5_28_2 -1 x_5_28_3 +0 x_5_14_0_sb +0 x_5_14_1_sb +0 x_5_14_2_sb +1 x_5_14_3_sb +0 p0_5_14 -1 p1_5_14 >= -2
-1 x_5_28_0 -1 x_5_28_1 +0 x_5_28_2 -1 x_5_28_3 +0 x_5_14_0_sb +1 x_5_14_1_sb +0 x_5_14_2_sb -1 x_5_14_3_sb +0 p0_5_14 -1 p1_5_14 >= -4
-1 x_5_28_0 +1 x_5_28_1 +0 x_5_28_2 +1 x_5_28_3 +0 x_5_14_0_sb +1 x_5_14_1_sb +0 x_5_14_2_sb +1 x_5_14_3_sb +0 p0_5_14 +1 p1_5_14 >= 0
+0 x_5_28_0 +0 x_5_28_1 +0 x_5_28_2 +0 x_5_28_3 +1 x_5_14_0_sb -1 x_5_14_1_sb +0 x_5_14_2_sb -1 x_5_14_3_sb +0 p0_5_14 +1 p1_5_14 >= -1
+1 x_5_28_0 +0 x_5_28_1 +1 x_5_28_2 +0 x_5_28_3 +1 x_5_14_0_sb -1 x_5_14_1_sb +0 x_5_14_2_sb +0 x_5_14_3_sb +0 p0_5_14 -1 p1_5_14 >= -1
+0 x_5_28_0 +1 x_5_28_1 +0 x_5_28_2 +1 x_5_28_3 +0 x_5_14_0_sb -1 x_5_14_1_sb -1 x_5_14_2_sb +0 x_5_14_3_sb +0 p0_5_14 -1 p1_5_14 >= -2
+1 x_5_28_0 -1 x_5_28_1 +0 x_5_28_2 -1 x_5_28_3 +0 x_5_14_0_sb +0 x_5_14_1_sb +1 x_5_14_2_sb +0 x_5_14_3_sb +0 p0_5_14 +0 p1_5_14 >= -1
+1 x_5_28_0 -1 x_5_28_1 -1 x_5_28_2 +0 x_5_28_3 +0 x_5_14_0_sb +0 x_5_14_1_sb +1 x_5_14_2_sb -1 x_5_14_3_sb +0 p0_5_14 -1 p1_5_14 >= -3
+1 x_5_28_0 -1 x_5_28_1 +0 x_5_28_2 -1 x_5_28_3 +0 x_5_14_0_sb +0 x_5_14_1_sb +0 x_5_14_2_sb +0 x_5_14_3_sb +0 p0_5_14 +1 p1_5_14 >= -1
+1 x_5_28_0 +0 x_5_28_1 +0 x_5_28_2 +0 x_5_28_3 -1 x_5_14_0_sb +1 x_5_14_1_sb +0 x_5_14_2_sb -1 x_5_14_3_sb +0 p0_5_14 +1 p1_5_14 >= -1
+1 x_5_28_0 +0 x_5_28_1 +0 x_5_28_2 +0 x_5_28_3 -1 x_5_14_0_sb -1 x_5_14_1_sb +0 x_5_14_2_sb +1 x_5_14_3_sb +0 p0_5_14 +1 p1_5_14 >= -1
-1 x_5_28_0 -1 x_5_28_1 +0 x_5_28_2 +1 x_5_28_3 +1 x_5_14_0_sb +0 x_5_14_1_sb +0 x_5_14_2_sb +0 x_5_14_3_sb +0 p0_5_14 +1 p1_5_14 >= -1
-1 x_5_28_0 +1 x_5_28_1 +0 x_5_28_2 -1 x_5_28_3 +1 x_5_14_0_sb +0 x_5_14_1_sb +0 x_5_14_2_sb +0 x_5_14_3_sb +0 p0_5_14 +1 p1_5_14 >= -1
+0 x_5_28_0 -1 x_5_28_1 +0 x_5_28_2 -1 x_5_28_3 +0 x_5_14_0_sb -1 x_5_14_1_sb +0 x_5_14_2_sb -1 x_5_14_3_sb +0 p0_5_14 +1 p1_5_14 >= -3
+1 x_5_28_0 +1 x_5_28_1 +0 x_5_28_2 +1 x_5_28_3 +0 x_5_14_0_sb +0 x_5_14_1_sb -1 x_5_14_2_sb +0 x_5_14_3_sb +0 p0_5_14 +0 p1_5_14 >= 0
-1 x_5_28_0 +0 x_5_28_1 +1 x_5_28_2 -1 x_5_28_3 +0 x_5_14_0_sb -1 x_5_14_1_sb -1 x_5_14_2_sb +0 x_5_14_3_sb +0 p0_5_14 -1 p1_5_14 >= -4
+1 x_5_28_0 +1 x_5_28_1 +0 x_5_28_2 -1 x_5_28_3 +1 x_5_14_0_sb +1 x_5_14_1_sb +0 x_5_14_2_sb -1 x_5_14_3_sb +0 p0_5_14 -1 p1_5_14 >= -2
+1 x_5_28_0 +0 x_5_28_1 +1 x_5_28_2 +0 x_5_28_3 +0 x_5_14_0_sb +1 x_5_14_1_sb +1 x_5_14_2_sb +1 x_5_14_3_sb +0 p0_5_14 -1 p1_5_14 >= 0
+1 x_5_28_0 +0 x_5_28_1 -1 x_5_28_2 -1 x_5_28_3 -1 x_5_14_0_sb -1 x_5_14_1_sb +0 x_5_14_2_sb -1 x_5_14_3_sb +0 p0_5_14 -1 p1_5_14 >= -5
+0 x_5_28_0 +0 x_5_28_1 +1 x_5_28_2 +1 x_5_28_3 -1 x_5_14_0_sb +0 x_5_14_1_sb -1 x_5_14_2_sb +0 x_5_14_3_sb +0 p0_5_14 -1 p1_5_14 >= -2
+0 x_5_28_0 +0 x_5_28_1 +1 x_5_28_2 +0 x_5_28_3 +1 x_5_14_0_sb -1 x_5_14_1_sb +0 x_5_14_2_sb -1 x_5_14_3_sb +0 p0_5_14 +0 p1_5_14 >= -1
+0 x_5_28_0 -1 x_5_28_1 +0 x_5_28_2 -1 x_5_28_3 +0 x_5_14_0_sb +1 x_5_14_1_sb +0 x_5_14_2_sb +1 x_5_14_3_sb +0 p0_5_14 +1 p1_5_14 >= -1
+0 x_5_28_0 +1 x_5_28_1 +0 x_5_28_2 +1 x_5_28_3 +0 x_5_14_0_sb -1 x_5_14_1_sb +0 x_5_14_2_sb -1 x_5_14_3_sb +0 p0_5_14 +1 p1_5_14 >= -1
+1 x_5_28_0 -1 x_5_28_1 +1 x_5_28_2 -1 x_5_28_3 +1 x_5_14_0_sb +0 x_5_14_1_sb +0 x_5_14_2_sb +0 x_5_14_3_sb +0 p0_5_14 +0 p1_5_14 >= -1
+1 x_5_28_0 +0 x_5_28_1 +0 x_5_28_2 +0 x_5_28_3 +1 x_5_14_0_sb -1 x_5_14_1_sb +1 x_5_14_2_sb -1 x_5_14_3_sb +0 p0_5_14 +0 p1_5_14 >= -1
+0 x_5_28_0 -1 x_5_28_1 +0 x_5_28_2 -1 x_5_28_3 +1 x_5_14_0_sb -1 x_5_14_1_sb -1 x_5_14_2_sb -1 x_5_14_3_sb +0 p0_5_14 +0 p1_5_14 >= -4
+1 x_5_28_0 +0 x_5_28_1 +0 x_5_28_2 +1 x_5_28_3 +0 x_5_14_0_sb -1 x_5_14_1_sb -1 x_5_14_2_sb +1 x_5_14_3_sb +0 p0_5_14 -1 p1_5_14 >= -2
+0 x_5_28_0 +0 x_5_28_1 -1 x_5_28_2 +1 x_5_28_3 -1 x_5_14_0_sb +1 x_5_14_1_sb +0 x_5_14_2_sb -1 x_5_14_3_sb +0 p0_5_14 -1 p1_5_14 >= -3
+0 x_5_28_0 +1 x_5_28_1 +0 x_5_28_2 +1 x_5_28_3 -1 x_5_14_0_sb -1 x_5_14_1_sb +0 x_5_14_2_sb +1 x_5_14_3_sb +0 p0_5_14 -1 p1_5_14 >= -2
-1 x_5_28_0 +1 x_5_28_1 +0 x_5_28_2 -1 x_5_28_3 +0 x_5_14_0_sb +0 x_5_14_1_sb -1 x_5_14_2_sb +1 x_5_14_3_sb +0 p0_5_14 -1 p1_5_14 >= -3
-1 x_5_28_0 +0 x_5_28_1 +0 x_5_28_2 +0 x_5_28_3 -1 x_5_14_0_sb +1 x_5_14_1_sb +0 x_5_14_2_sb -1 x_5_14_3_sb +0 p0_5_14 -1 p1_5_14 >= -3
+0 x_5_28_0 +0 x_5_28_1 -1 x_5_28_2 +0 x_5_28_3 +1 x_5_14_0_sb +1 x_5_14_1_sb +0 x_5_14_2_sb +1 x_5_14_3_sb +0 p0_5_14 +0 p1_5_14 >= 0
+0 x_5_30_0 +0 x_5_30_1 +0 x_5_30_2 +0 x_5_30_3 +0 x_5_15_0_sb +0 x_5_15_1_sb +0 x_5_15_2_sb +0 x_5_15_3_sb -1 p0_5_15 -1 p1_5_15 >= -1
+0 x_5_30_0 +0 x_5_30_1 +0 x_5_30_2 +0 x_5_30_3 +0 x_5_15_0_sb +0 x_5_15_1_sb +0 x_5_15_2_sb -1 x_5_15_3_sb +1 p0_5_15 +1 p1_5_15 >= 0
+0 x_5_30_0 +0 x_5_30_1 +0 x_5_30_2 +0 x_5_30_3 +0 x_5_15_0_sb -1 x_5_15_1_sb +0 x_5_15_2_sb +0 x_5_15_3_sb +1 p0_5_15 +1 p1_5_15 >= 0
+0 x_5_30_0 +0 x_5_30_1 +0 x_5_30_2 +0 x_5_30_3 -1 x_5_15_0_sb +0 x_5_15_1_sb +0 x_5_15_2_sb +0 x_5_15_3_sb +1 p0_5_15 +1 p1_5_15 >= 0
+0 x_5_30_0 +0 x_5_30_1 +0 x_5_30_2 +0 x_5_30_3 +1 x_5_15_0_sb +1 x_5_15_1_sb +1 x_5_15_2_sb +1 x_5_15_3_sb +0 p0_5_15 -1 p1_5_15 >= 0
+0 x_5_30_0 +0 x_5_30_1 +0 x_5_30_2 -1 x_5_30_3 +1 x_5_15_0_sb +1 x_5_15_1_sb +0 x_5_15_2_sb +1 x_5_15_3_sb +0 p0_5_15 +1 p1_5_15 >= 0
-1 x_5_30_0 +0 x_5_30_1 -1 x_5_30_2 +0 x_5_30_3 +1 x_5_15_0_sb +0 x_5_15_1_sb +0 x_5_15_2_sb +1 x_5_15_3_sb +0 p0_5_15 -1 p1_5_15 >= -2
+1 x_5_30_0 +0 x_5_30_1 +1 x_5_30_2 +0 x_5_30_3 +1 x_5_15_0_sb +0 x_5_15_1_sb +1 x_5_15_2_sb +0 x_5_15_3_sb +0 p0_5_15 -1 p1_5_15 >= 0
+0 x_5_30_0 +0 x_5_30_1 +0 x_5_30_2 +1 x_5_30_3 +0 x_5_15_0_sb +1 x_5_15_1_sb -1 x_5_15_2_sb -1 x_5_15_3_sb +0 p0_5_15 -1 p1_5_15 >= -2
-1 x_5_30_0 +0 x_5_30_1 +0 x_5_30_2 -1 x_5_30_3 -1 x_5_15_0_sb +0 x_5_15_1_sb +0 x_5_15_2_sb +1 x_5_15_3_sb +0 p0_5_15 -1 p1_5_15 >= -3
+0 x_5_30_0 +0 x_5_30_1 +0 x_5_30_2 +1 x_5_30_3 -1 x_5_15_0_sb -1 x_5_15_1_sb -1 x_5_15_2_sb +0 x_5_15_3_sb +0 p0_5_15 -1 p1_5_15 >= -3
+1 x_5_30_0 +1 x_5_30_1 +0 x_5_30_2 +1 x_5_30_3 +0 x_5_15_0_sb +0 x_5_15_1_sb +0 x_5_15_2_sb +0 x_5_15_3_sb -1 p0_5_15 +0 p1_5_15 >= 0
+0 x_5_30_0 +0 x_5_30_1 +1 x_5_30_2 +1 x_5_30_3 +0 x_5_15_0_sb -1 x_5_15_1_sb +1 x_5_15_2_sb +0 x_5_15_3_sb +0 p0_5_15 -1 p1_5_15 >= -1
+0 x_5_30_0 +1 x_5_30_1 +0 x_5_30_2 -1 x_5_30_3 -1 x_5_15_0_sb +0 x_5_15_1_sb -1 x_5_15_2_sb +0 x_5_15_3_sb +0 p0_5_15 -1 p1_5_15 >= -3
+0 x_5_30_0 +1 x_5_30_1 +1 x_5_30_2 +0 x_5_30_3 +0 x_5_15_0_sb +0 x_5_15_1_sb +1 x_5_15_2_sb -1 x_5_15_3_sb +0 p0_5_15 -1 p1_5_15 >= -1
-1 x_5_30_0 +0 x_5_30_1 -1 x_5_30_2 +0 x_5_30_3 -1 x_5_15_0_sb +0 x_5_15_1_sb +1 x_5_15_2_sb +0 x_5_15_3_sb +0 p0_5_15 -1 p1_5_15 >= -3
+0 x_5_30_0 -1 x_5_30_1 -1 x_5_30_2 +0 x_5_30_3 +0 x_5_15_0_sb +1 x_5_15_1_sb +0 x_5_15_2_sb +1 x_5_15_3_sb +0 p0_5_15 -1 p1_5_15 >= -2
+0 x_5_30_0 -1 x_5_30_1 +0 x_5_30_2 +0 x_5_30_3 +1 x_5_15_0_sb +1 x_5_15_1_sb +0 x_5_15_2_sb +1 x_5_15_3_sb +0 p0_5_15 +1 p1_5_15 >= 0
-1 x_5_30_0 -1 x_5_30_1 +0 x_5_30_2 +1 x_5_30_3 +0 x_5_15_0_sb +1 x_5_15_1_sb +0 x_5_15_2_sb +1 x_5_15_3_sb +0 p0_5_15 -1 p1_5_15 >= -2
+0 x_5_30_0 -1 x_5_30_1 +0 x_5_30_2 +0 x_5_30_3 +1 x_5_15_0_sb +0 x_5_15_1_sb +1 x_5_15_2_sb +1 x_5_15_3_sb +0 p0_5_15 -1 p1_5_15 >= -1
-1 x_5_30_0 +0 x_5_30_1 -1 x_5_30_2 +0 x_5_30_3 +1 x_5_15_0_sb +1 x_5_15_1_sb +0 x_5_15_2_sb +0 x_5_15_3_sb +0 p0_5_15 -1 p1_5_15 >= -2
+0 x_5_30_0 +1 x_5_30_1 -1 x_5_30_2 -1 x_5_30_3 +0 x_5_15_0_sb +0 x_5_15_1_sb +0 x_5_15_2_sb +1 x_5_15_3_sb +0 p0_5_15 -1 p1_5_15 >= -2
-1 x_5_30_0 -1 x_5_30_1 +0 x_5_30_2 -1 x_5_30_3 +0 x_5_15_0_sb +1 x_5_15_1_sb +0 x_5_15_2_sb -1 x_5_15_3_sb +0 p0_5_15 -1 p1_5_15 >= -4
-1 x_5_30_0 +1 x_5_30_1 +0 x_5_30_2 +1 x_5_30_3 +0 x_5_15_0_sb +1 x_5_15_1_sb +0 x_5_15_2_sb +1 x_5_15_3_sb +0 p0_5_15 +1 p1_5_15 >= 0
+0 x_5_30_0 +0 x_5_30_1 +0 x_5_30_2 +0 x_5_30_3 +1 x_5_15_0_sb -1 x_5_15_1_sb +0 x_5_15_2_sb -1 x_5_15_3_sb +0 p0_5_15 +1 p1_5_15 >= -1
+1 x_5_30_0 +0 x_5_30_1 +1 x_5_30_2 +0 x_5_30_3 +1 x_5_15_0_sb -1 x_5_15_1_sb +0 x_5_15_2_sb +0 x_5_15_3_sb +0 p0_5_15 -1 p1_5_15 >= -1
+0 x_5_30_0 +1 x_5_30_1 +0 x_5_30_2 +1 x_5_30_3 +0 x_5_15_0_sb -1 x_5_15_1_sb -1 x_5_15_2_sb +0 x_5_15_3_sb +0 p0_5_15 -1 p1_5_15 >= -2
+1 x_5_30_0 -1 x_5_30_1 +0 x_5_30_2 -1 x_5_30_3 +0 x_5_15_0_sb +0 x_5_15_1_sb +1 x_5_15_2_sb +0 x_5_15_3_sb +0 p0_5_15 +0 p1_5_15 >= -1
+1 x_5_30_0 -1 x_5_30_1 -1 x_5_30_2 +0 x_5_30_3 +0 x_5_15_0_sb +0 x_5_15_1_sb +1 x_5_15_2_sb -1 x_5_15_3_sb +0 p0_5_15 -1 p1_5_15 >= -3
+1 x_5_30_0 -1 x_5_30_1 +0 x_5_30_2 -1 x_5_30_3 +0 x_5_15_0_sb +0 x_5_15_1_sb +0 x_5_15_2_sb +0 x_5_15_3_sb +0 p0_5_15 +1 p1_5_15 >= -1
+1 x_5_30_0 +0 x_5_30_1 +0 x_5_30_2 +0 x_5_30_3 -1 x_5_15_0_sb +1 x_5_15_1_sb +0 x_5_15_2_sb -1 x_5_15_3_sb +0 p0_5_15 +1 p1_5_15 >= -1
+1 x_5_30_0 +0 x_5_30_1 +0 x_5_30_2 +0 x_5_30_3 -1 x_5_15_0_sb -1 x_5_15_1_sb +0 x_5_15_2_sb +1 x_5_15_3_sb +0 p0_5_15 +1 p1_5_15 >= -1
-1 x_5_30_0 -1 x_5_30_1 +0 x_5_30_2 +1 x_5_30_3 +1 x_5_15_0_sb +0 x_5_15_1_sb +0 x_5_15_2_sb +0 x_5_15_3_sb +0 p0_5_15 +1 p1_5_15 >= -1
-1 x_5_30_0 +1 x_5_30_1 +0 x_5_30_2 -1 x_5_30_3 +1 x_5_15_0_sb +0 x_5_15_1_sb +0 x_5_15_2_sb +0 x_5_15_3_sb +0 p0_5_15 +1 p1_5_15 >= -1
+0 x_5_30_0 -1 x_5_30_1 +0 x_5_30_2 -1 x_5_30_3 +0 x_5_15_0_sb -1 x_5_15_1_sb +0 x_5_15_2_sb -1 x_5_15_3_sb +0 p0_5_15 +1 p1_5_15 >= -3
+1 x_5_30_0 +1 x_5_30_1 +0 x_5_30_2 +1 x_5_30_3 +0 x_5_15_0_sb +0 x_5_15_1_sb -1 x_5_15_2_sb +0 x_5_15_3_sb +0 p0_5_15 +0 p1_5_15 >= 0
-1 x_5_30_0 +0 x_5_30_1 +1 x_5_30_2 -1 x_5_30_3 +0 x_5_15_0_sb -1 x_5_15_1_sb -1 x_5_15_2_sb +0 x_5_15_3_sb +0 p0_5_15 -1 p1_5_15 >= -4
+1 x_5_30_0 +1 x_5_30_1 +0 x_5_30_2 -1 x_5_30_3 +1 x_5_15_0_sb +1 x_5_15_1_sb +0 x_5_15_2_sb -1 x_5_15_3_sb +0 p0_5_15 -1 p1_5_15 >= -2
+1 x_5_30_0 +0 x_5_30_1 +1 x_5_30_2 +0 x_5_30_3 +0 x_5_15_0_sb +1 x_5_15_1_sb +1 x_5_15_2_sb +1 x_5_15_3_sb +0 p0_5_15 -1 p1_5_15 >= 0
+1 x_5_30_0 +0 x_5_30_1 -1 x_5_30_2 -1 x_5_30_3 -1 x_5_15_0_sb -1 x_5_15_1_sb +0 x_5_15_2_sb -1 x_5_15_3_sb +0 p0_5_15 -1 p1_5_15 >= -5
+0 x_5_30_0 +0 x_5_30_1 +1 x_5_30_2 +1 x_5_30_3 -1 x_5_15_0_sb +0 x_5_15_1_sb -1 x_5_15_2_sb +0 x_5_15_3_sb +0 p0_5_15 -1 p1_5_15 >= -2
+0 x_5_30_0 +0 x_5_30_1 +1 x_5_30_2 +0 x_5_30_3 +1 x_5_15_0_sb -1 x_5_15_1_sb +0 x_5_15_2_sb -1 x_5_15_3_sb +0 p0_5_15 +0 p1_5_15 >= -1
+0 x_5_30_0 -1 x_5_30_1 +0 x_5_30_2 -1 x_5_30_3 +0 x_5_15_0_sb +1 x_5_15_1_sb +0 x_5_15_2_sb +1 x_5_15_3_sb +0 p0_5_15 +1 p1_5_15 >= -1
+0 x_5_30_0 +1 x_5_30_1 +0 x_5_30_2 +1 x_5_30_3 +0 x_5_15_0_sb -1 x_5_15_1_sb +0 x_5_15_2_sb -1 x_5_15_3_sb +0 p0_5_15 +1 p1_5_15 >= -1
+1 x_5_30_0 -1 x_5_30_1 +1 x_5_30_2 -1 x_5_30_3 +1 x_5_15_0_sb +0 x_5_15_1_sb +0 x_5_15_2_sb +0 x_5_15_3_sb +0 p0_5_15 +0 p1_5_15 >= -1
+1 x_5_30_0 +0 x_5_30_1 +0 x_5_30_2 +0 x_5_30_3 +1 x_5_15_0_sb -1 x_5_15_1_sb +1 x_5_15_2_sb -1 x_5_15_3_sb +0 p0_5_15 +0 p1_5_15 >= -1
+0 x_5_30_0 -1 x_5_30_1 +0 x_5_30_2 -1 x_5_30_3 +1 x_5_15_0_sb -1 x_5_15_1_sb -1 x_5_15_2_sb -1 x_5_15_3_sb +0 p0_5_15 +0 p1_5_15 >= -4
+1 x_5_30_0 +0 x_5_30_1 +0 x_5_30_2 +1 x_5_30_3 +0 x_5_15_0_sb -1 x_5_15_1_sb -1 x_5_15_2_sb +1 x_5_15_3_sb +0 p0_5_15 -1 p1_5_15 >= -2
+0 x_5_30_0 +0 x_5_30_1 -1 x_5_30_2 +1 x_5_30_3 -1 x_5_15_0_sb +1 x_5_15_1_sb +0 x_5_15_2_sb -1 x_5_15_3_sb +0 p0_5_15 -1 p1_5_15 >= -3
+0 x_5_30_0 +1 x_5_30_1 +0 x_5_30_2 +1 x_5_30_3 -1 x_5_15_0_sb -1 x_5_15_1_sb +0 x_5_15_2_sb +1 x_5_15_3_sb +0 p0_5_15 -1 p1_5_15 >= -2
-1 x_5_30_0 +1 x_5_30_1 +0 x_5_30_2 -1 x_5_30_3 +0 x_5_15_0_sb +0 x_5_15_1_sb -1 x_5_15_2_sb +1 x_5_15_3_sb +0 p0_5_15 -1 p1_5_15 >= -3
-1 x_5_30_0 +0 x_5_30_1 +0 x_5_30_2 +0 x_5_30_3 -1 x_5_15_0_sb +1 x_5_15_1_sb +0 x_5_15_2_sb -1 x_5_15_3_sb +0 p0_5_15 -1 p1_5_15 >= -3
+0 x_5_30_0 +0 x_5_30_1 -1 x_5_30_2 +0 x_5_30_3 +1 x_5_15_0_sb +1 x_5_15_1_sb +0 x_5_15_2_sb +1 x_5_15_3_sb +0 p0_5_15 +0 p1_5_15 >= 0
-1 x_5_1_0 -1 x_5_0_0_sb -1 x_6_6_0 >= -2
+1 x_5_1_0 +1 x_5_0_0_sb -1 x_6_6_0 >= 0
+1 x_5_1_0 -1 x_5_0_0_sb +1 x_6_6_0 >= 0
-1 x_5_1_0 +1 x_5_0_0_sb +1 x_6_6_0 >= 0
-1 x_5_1_1 -1 x_5_0_1_sb -1 x_6_6_1 >= -2
+1 x_5_1_1 +1 x_5_0_1_sb -1 x_6_6_1 >= 0
+1 x_5_1_1 -1 x_5_0_1_sb +1 x_6_6_1 >= 0
-1 x_5_1_1 +1 x_5_0_1_sb +1 x_6_6_1 >= 0
-1 x_5_1_2 -1 x_5_0_2_sb -1 x_6_6_2 >= -2
+1 x_5_1_2 +1 x_5_0_2_sb -1 x_6_6_2 >= 0
+1 x_5_1_2 -1 x_5_0_2_sb +1 x_6_6_2 >= 0
-1 x_5_1_2 +1 x_5_0_2_sb +1 x_6_6_2 >= 0
-1 x_5_1_3 -1 x_5_0_3_sb -1 x_6_6_3 >= -2
+1 x_5_1_3 +1 x_5_0_3_sb -1 x_6_6_3 >= 0
+1 x_5_1_3 -1 x_5_0_3_sb +1 x_6_6_3 >= 0
-1 x_5_1_3 +1 x_5_0_3_sb +1 x_6_6_3 >= 0
-1 x_5_3_0 -1 x_5_1_0_sb -1 x_6_14_0 >= -2
+1 x_5_3_0 +1 x_5_1_0_sb -1 x_6_14_0 >= 0
+1 x_5_3_0 -1 x_5_1_0_sb +1 x_6_14_0 >= 0
-1 x_5_3_0 +1 x_5_1_0_sb +1 x_6_14_0 >= 0
-1 x_5_3_1 -1 x_5_1_1_sb -1 x_6_14_1 >= -2
+1 x_5_3_1 +1 x_5_1_1_sb -1 x_6_14_1 >= 0
+1 x_5_3_1 -1 x_5_1_1_sb +1 x_6_14_1 >= 0
-1 x_5_3_1 +1 x_5_1_1_sb +1 x_6_14_1 >= 0
-1 x_5_3_2 -1 x_5_1_2_sb -1 x_6_14_2 >= -2
+1 x_5_3_2 +1 x_5_1_2_sb -1 x_6_14_2 >= 0
+1 x_5_3_2 -1 x_5_1_2_sb +1 x_6_14_2 >= 0
-1 x_5_3_2 +1 x_5_1_2_sb +1 x_6_14_2 >= 0
-1 x_5_3_3 -1 x_5_1_3_sb -1 x_6_14_3 >= -2
+1 x_5_3_3 +1 x_5_1_3_sb -1 x_6_14_3 >= 0
+1 x_5_3_3 -1 x_5_1_3_sb +1 x_6_14_3 >= 0
-1 x_5_3_3 +1 x_5_1_3_sb +1 x_6_14_3 >= 0
-1 x_5_5_0 -1 x_5_2_0_sb -1 x_6_12_0 >= -2
+1 x_5_5_0 +1 x_5_2_0_sb -1 x_6_12_0 >= 0
+1 x_5_5_0 -1 x_5_2_0_sb +1 x_6_12_0 >= 0
-1 x_5_5_0 +1 x_5_2_0_sb +1 x_6_12_0 >= 0
-1 x_5_5_1 -1 x_5_2_1_sb -1 x_6_12_1 >= -2
+1 x_5_5_1 +1 x_5_2_1_sb -1 x_6_12_1 >= 0
+1 x_5_5_1 -1 x_5_2_1_sb +1 x_6_12_1 >= 0
-1 x_5_5_1 +1 x_5_2_1_sb +1 x_6_12_1 >= 0
-1 x_5_5_2 -1 x_5_2_2_sb -1 x_6_12_2 >= -2
+1 x_5_5_2 +1 x_5_2_2_sb -1 x_6_12_2 >= 0
+1 x_5_5_2 -1 x_5_2_2_sb +1 x_6_12_2 >= 0
-1 x_5_5_2 +1 x_5_2_2_sb +1 x_6_12_2 >= 0
-1 x_5_5_3 -1 x_5_2_3_sb -1 x_6_12_3 >= -2
+1 x_5_5_3 +1 x_5_2_3_sb -1 x_6_12_3 >= 0
+1 x_5_5_3 -1 x_5_2_3_sb +1 x_6_12_3 >= 0
-1 x_5_5_3 +1 x_5_2_3_sb +1 x_6_12_3 >= 0
-1 x_5_7_0 -1 x_5_3_0_sb -1 x_6_8_0 >= -2
+1 x_5_7_0 +1 x_5_3_0_sb -1 x_6_8_0 >= 0
+1 x_5_7_0 -1 x_5_3_0_sb +1 x_6_8_0 >= 0
-1 x_5_7_0 +1 x_5_3_0_sb +1 x_6_8_0 >= 0
-1 x_5_7_1 -1 x_5_3_1_sb -1 x_6_8_1 >= -2
+1 x_5_7_1 +1 x_5_3_1_sb -1 x_6_8_1 >= 0
+1 x_5_7_1 -1 x_5_3_1_sb +1 x_6_8_1 >= 0
-1 x_5_7_1 +1 x_5_3_1_sb +1 x_6_8_1 >= 0
-1 x_5_7_2 -1 x_5_3_2_sb -1 x_6_8_2 >= -2
+1 x_5_7_2 +1 x_5_3_2_sb -1 x_6_8_2 >= 0
+1 x_5_7_2 -1 x_5_3_2_sb +1 x_6_8_2 >= 0
-1 x_5_7_2 +1 x_5_3_2_sb +1 x_6_8_2 >= 0
-1 x_5_7_3 -1 x_5_3_3_sb -1 x_6_8_3 >= -2
+1 x_5_7_3 +1 x_5_3_3_sb -1 x_6_8_3 >= 0
+1 x_5_7_3 -1 x_5_3_3_sb +1 x_6_8_3 >= 0
-1 x_5_7_3 +1 x_5_3_3_sb +1 x_6_8_3 >= 0
-1 x_5_9_0 -1 x_5_4_0_sb -1 x_6_2_0 >= -2
+1 x_5_9_0 +1 x_5_4_0_sb -1 x_6_2_0 >= 0
+1 x_5_9_0 -1 x_5_4_0_sb +1 x_6_2_0 >= 0
-1 x_5_9_0 +1 x_5_4_0_sb +1 x_6_2_0 >= 0
-1 x_5_9_1 -1 x_5_4_1_sb -1 x_6_2_1 >= -2
+1 x_5_9_1 +1 x_5_4_1_sb -1 x_6_2_1 >= 0
+1 x_5_9_1 -1 x_5_4_1_sb +1 x_6_2_1 >= 0
-1 x_5_9_1 +1 x_5_4_1_sb +1 x_6_2_1 >= 0
-1 x_5_9_2 -1 x_5_4_2_sb -1 x_6_2_2 >= -2
+1 x_5_9_2 +1 x_5_4_2_sb -1 x_6_2_2 >= 0
+1 x_5_9_2 -1 x_5_4_2_sb +1 x_6_2_2 >= 0
-1 x_5_9_2 +1 x_5_4_2_sb +1 x_6_2_2 >= 0
-1 x_5_9_3 -1 x_5_4_3_sb -1 x_6_2_3 >= -2
+1 x_5_9_3 +1 x_5_4_3_sb -1 x_6_2_3 >= 0
+1 x_5_9_3 -1 x_5_4_3_sb +1 x_6_2_3 >= 0
-1 x_5_9_3 +1 x_5_4_3_sb +1 x_6_2_3 >= 0
-1 x_5_11_0 -1 x_5_5_0_sb -1 x_6_0_0 >= -2
+1 x_5_11_0 +1 x_5_5_0_sb -1 x_6_0_0 >= 0
+1 x_5_11_0 -1 x_5_5_0_sb +1 x_6_0_0 >= 0
-1 x_5_11_0 +1 x_5_5_0_sb +1 x_6_0_0 >= 0
-1 x_5_11_1 -1 x_5_5_1_sb -1 x_6_0_1 >= -2
+1 x_5_11_1 +1 x_5_5_1_sb -1 x_6_0_1 >= 0
+1 x_5_11_1 -1 x_5_5_1_sb +1 x_6_0_1 >= 0
-1 x_5_11_1 +1 x_5_5_1_sb +1 x_6_0_1 >= 0
-1 x_5_11_2 -1 x_5_5_2_sb -1 x_6_0_2 >= -2
+1 x_5_11_2 +1 x_5_5_2_sb -1 x_6_0_2 >= 0
+1 x_5_11_2 -1 x_5_5_2_sb +1 x_6_0_2 >= 0
-1 x_5_11_2 +1 x_5_5_2_sb +1 x_6_0_2 >= 0
-1 x_5_11_3 -1 x_5_5_3_sb -1 x_6_0_3 >= -2
+1 x_5_11_3 +1 x_5_5_3_sb -1 x_6_0_3 >= 0
+1 x_5_11_3 -1 x_5_5_3_sb +1 x_6_0_3 >= 0
-1 x_5_11_3 +1 x_5_5_3_sb +1 x_6_0_3 >= 0
-1 x_5_13_0 -1 x_5_6_0_sb -1 x_6_4_0 >= -2
+1 x_5_13_0 +1 x_5_6_0_sb -1 x_6_4_0 >= 0
+1 x_5_13_0 -1 x_5_6_0_sb +1 x_6_4_0 >= 0
-1 x_5_13_0 +1 x_5_6_0_sb +1 x_6_4_0 >= 0
-1 x_5_13_1 -1 x_5_6_1_sb -1 x_6_4_1 >= -2
+1 x_5_13_1 +1 x_5_6_1_sb -1 x_6_4_1 >= 0
+1 x_5_13_1 -1 x_5_6_1_sb +1 x_6_4_1 >= 0
-1 x_5_13_1 +1 x_5_6_1_sb +1 x_6_4_1 >= 0
-1 x_5_13_2 -1 x_5_6_2_sb -1 x_6_4_2 >= -2
+1 x_5_13_2 +1 x_5_6_2_sb -1 x_6_4_2 >= 0
+1 x_5_13_2 -1 x_5_6_2_sb +1 x_6_4_2 >= 0
-1 x_5_13_2 +1 x_5_6_2_sb +1 x_6_4_2 >= 0
-1 x_5_13_3 -1 x_5_6_3_sb -1 x_6_4_3 >= -2
+1 x_5_13_3 +1 x_5_6_3_sb -1 x_6_4_3 >= 0
+1 x_5_13_3 -1 x_5_6_3_sb +1 x_6_4_3 >= 0
-1 x_5_13_3 +1 x_5_6_3_sb +1 x_6_4_3 >= 0
-1 x_5_15_0 -1 x_5_7_0_sb -1 x_6_10_0 >= -2
+1 x_5_15_0 +1 x_5_7_0_sb -1 x_6_10_0 >= 0
+1 x_5_15_0 -1 x_5_7_0_sb +1 x_6_10_0 >= 0
-1 x_5_15_0 +1 x_5_7_0_sb +1 x_6_10_0 >= 0
-1 x_5_15_1 -1 x_5_7_1_sb -1 x_6_10_1 >= -2
+1 x_5_15_1 +1 x_5_7_1_sb -1 x_6_10_1 >= 0
+1 x_5_15_1 -1 x_5_7_1_sb +1 x_6_10_1 >= 0
-1 x_5_15_1 +1 x_5_7_1_sb +1 x_6_10_1 >= 0
-1 x_5_15_2 -1 x_5_7_2_sb -1 x_6_10_2 >= -2
+1 x_5_15_2 +1 x_5_7_2_sb -1 x_6_10_2 >= 0
+1 x_5_15_2 -1 x_5_7_2_sb +1 x_6_10_2 >= 0
-1 x_5_15_2 +1 x_5_7_2_sb +1 x_6_10_2 >= 0
-1 x_5_15_3 -1 x_5_7_3_sb -1 x_6_10_3 >= -2
+1 x_5_15_3 +1 x_5_7_3_sb -1 x_6_10_3 >= 0
+1 x_5_15_3 -1 x_5_7_3_sb +1 x_6_10_3 >= 0
-1 x_5_15_3 +1 x_5_7_3_sb +1 x_6_10_3 >= 0
-1 x_5_17_0 -1 x_5_8_0_sb -1 x_6_22_0 >= -2
+1 x_5_17_0 +1 x_5_8_0_sb -1 x_6_22_0 >= 0
+1 x_5_17_0 -1 x_5_8_0_sb +1 x_6_22_0 >= 0
-1 x_5_17_0 +1 x_5_8_0_sb +1 x_6_22_0 >= 0
-1 x_5_17_1 -1 x_5_8_1_sb -1 x_6_22_1 >= -2
+1 x_5_17_1 +1 x_5_8_1_sb -1 x_6_22_1 >= 0
+1 x_5_17_1 -1 x_5_8_1_sb +1 x_6_22_1 >= 0
-1 x_5_17_1 +1 x_5_8_1_sb +1 x_6_22_1 >= 0
-1 x_5_17_2 -1 x_5_8_2_sb -1 x_6_22_2 >= -2
+1 x_5_17_2 +1 x_5_8_2_sb -1 x_6_22_2 >= 0
+1 x_5_17_2 -1 x_5_8_2_sb +1 x_6_22_2 >= 0
-1 x_5_17_2 +1 x_5_8_2_sb +1 x_6_22_2 >= 0
-1 x_5_17_3 -1 x_5_8_3_sb -1 x_6_22_3 >= -2
+1 x_5_17_3 +1 x_5_8_3_sb -1 x_6_22_3 >= 0
+1 x_5_17_3 -1 x_5_8_3_sb +1 x_6_22_3 >= 0
-1 x_5_17_3 +1 x_5_8_3_sb +1 x_6_22_3 >= 0
-1 x_5_19_0 -1 x_5_9_0_sb -1 x_6_30_0 >= -2
+1 x_5_19_0 +1 x_5_9_0_sb -1 x_6_30_0 >= 0
+1 x_5_19_0 -1 x_5_9_0_sb +1 x_6_30_0 >= 0
-1 x_5_19_0 +1 x_5_9_0_sb +1 x_6_30_0 >= 0
-1 x_5_19_1 -1 x_5_9_1_sb -1 x_6_30_1 >= -2
+1 x_5_19_1 +1 x_5_9_1_sb -1 x_6_30_1 >= 0
+1 x_5_19_1 -1 x_5_9_1_sb +1 x_6_30_1 >= 0
-1 x_5_19_1 +1 x_5_9_1_sb +1 x_6_30_1 >= 0
-1 x_5_19_2 -1 x_5_9_2_sb -1 x_6_30_2 >= -2
+1 x_5_19_2 +1 x_5_9_2_sb -1 x_6_30_2 >= 0
+1 x_5_19_2 -1 x_5_9_2_sb +1 x_6_30_2 >= 0
-1 x_5_19_2 +1 x_5_9_2_sb +1 x_6_30_2 >= 0
-1 x_5_19_3 -1 x_5_9_3_sb -1 x_6_30_3 >= -2
+1 x_5_19_3 +1 x_5_9_3_sb -1 x_6_30_3 >= 0
+1 x_5_19_3 -1 x_5_9_3_sb +1 x_6_30_3 >= 0
-1 x_5_19_3 +1 x_5_9_3_sb +1 x_6_30_3 >= 0
-1 x_5_21_0 -1 x_5_10_0_sb -1 x_6_28_0 >= -2
+1 x_5_21_0 +1 x_5_10_0_sb -1 x_6_28_0 >= 0
+1 x_5_21_0 -1 x_5_10_0_sb +1 x_6_28_0 >= 0
-1 x_5_21_0 +1 x_5_10_0_sb +1 x_6_28_0 >= 0
-1 x_5_21_1 -1 x_5_10_1_sb -1 x_6_28_1 >= -2
+1 x_5_21_1 +1 x_5_10_1_sb -1 x_6_28_1 >= 0
+1 x_5_21_1 -1 x_5_10_1_sb +1 x_6_28_1 >= 0
-1 x_5_21_1 +1 x_5_10_1_sb +1 x_6_28_1 >= 0
-1 x_5_21_2 -1 x_5_10_2_sb -1 x_6_28_2 >= -2
+1 x_5_21_2 +1 x_5_10_2_sb -1 x_6_28_2 >= 0
+1 x_5_21_2 -1 x_5_10_2_sb +1 x_6_28_2 >= 0
-1 x_5_21_2 +1 x_5_10_2_sb +1 x_6_28_2 >= 0
-1 x_5_21_3 -1 x_5_10_3_sb -1 x_6_28_3 >= -2
+1 x_5_21_3 +1 x_5_10_3_sb -1 x_6_28_3 >= 0
+1 x_5_21_3 -1 x_5_10_3_sb +1 x_6_28_3 >= 0
-1 x_5_21_3 +1 x_5_10_3_sb +1 x_6_28_3 >= 0
-1 x_5_23_0 -1 x_5_11_0_sb -1 x_6_24_0 >= -2
+1 x_5_23_0 +1 x_5_11_0_sb -1 x_6_24_0 >= 0
+1 x_5_23_0 -1 x_5_11_0_sb +1 x_6_24_0 >= 0
-1 x_5_23_0 +1 x_5_11_0_sb +1 x_6_24_0 >= 0
-1 x_5_23_1 -1 x_5_11_1_sb -1 x_6_24_1 >= -2
+1 x_5_23_1 +1 x_5_11_1_sb -1 x_6_24_1 >= 0
+1 x_5_23_1 -1 x_5_11_1_sb +1 x_6_24_1 >= 0
-1 x_5_23_1 +1 x_5_11_1_sb +1 x_6_24_1 >= 0
-1 x_5_23_2 -1 x_5_11_2_sb -1 x_6_24_2 >= -2
+1 x_5_23_2 +1 x_5_11_2_sb -1 x_6_24_2 >= 0
+1 x_5_23_2 -1 x_5_11_2_sb +1 x_6_24_2 >= 0
-1 x_5_23_2 +1 x_5_11_2_sb +1 x_6_24_2 >= 0
-1 x_5_23_3 -1 x_5_11_3_sb -1 x_6_24_3 >= -2
+1 x_5_23_3 +1 x_5_11_3_sb -1 x_6_24_3 >= 0
+1 x_5_23_3 -1 x_5_11_3_sb +1 x_6_24_3 >= 0
-1 x_5_23_3 +1 x_5_11_3_sb +1 x_6_24_3 >= 0
-1 x_5_25_0 -1 x_5_12_0_sb -1 x_6_18_0 >= -2
+1 x_5_25_0 +1 x_5_12_0_sb -1 x_6_18_0 >= 0
+1 x_5_25_0 -1 x_5_12_0_sb +1 x_6_18_0 >= 0
-1 x_5_25_0 +1 x_5_12_0_sb +1 x_6_18_0 >= 0
-1 x_5_25_1 -1 x_5_12_1_sb -1 x_6_18_1 >= -2
+1 x_5_25_1 +1 x_5_12_1_sb -1 x_6_18_1 >= 0
+1 x_5_25_1 -1 x_5_12_1_sb +1 x_6_18_1 >= 0
-1 x_5_25_1 +1 x_5_12_1_sb +1 x_6_18_1 >= 0
-1 x_5_25_2 -1 x_5_12_2_sb -1 x_6_18_2 >= -2
+1 x_5_25_2 +1 x_5_12_2_sb -1 x_6_18_2 >= 0
+1 x_5_25_2 -1 x_5_12_2_sb +1 x_6_18_2 >= 0
-1 x_5_25_2 +1 x_5_12_2_sb +1 x_6_18_2 >= 0
-1 x_5_25_3 -1 x_5_12_3_sb -1 x_6_18_3 >= -2
+1 x_5_25_3 +1 x_5_12_3_sb -1 x_6_18_3 >= 0
+1 x_5_25_3 -1 x_5_12_3_sb +1 x_6_18_3 >= 0
-1 x_5_25_3 +1 x_5_12_3_sb +1 x_6_18_3 >= 0
-1 x_5_27_0 -1 x_5_13_0_sb -1 x_6_16_0 >= -2
+1 x_5_27_0 +1 x_5_13_0_sb -1 x_6_16_0 >= 0
+1 x_5_27_0 -1 x_5_13_0_sb +1 x_6_16_0 >= 0
-1 x_5_27_0 +1 x_5_13_0_sb +1 x_6_16_0 >= 0
-1 x_5_27_1 -1 x_5_13_1_sb -1 x_6_16_1 >= -2
+1 x_5_27_1 +1 x_5_13_1_sb -1 x_6_16_1 >= 0
+1 x_5_27_1 -1 x_5_13_1_sb +1 x_6_16_1 >= 0
-1 x_5_27_1 +1 x_5_13_1_sb +1 x_6_16_1 >= 0
-1 x_5_27_2 -1 x_5_13_2_sb -1 x_6_16_2 >= -2
+1 x_5_27_2 +1 x_5_13_2_sb -1 x_6_16_2 >= 0
+1 x_5_27_2 -1 x_5_13_2_sb +1 x_6_16_2 >= 0
-1 x_5_27_2 +1 x_5_13_2_sb +1 x_6_16_2 >= 0
-1 x_5_27_3 -1 x_5_13_3_sb -1 x_6_16_3 >= -2
+1 x_5_27_3 +1 x_5_13_3_sb -1 x_6_16_3 >= 0
+1 x_5_27_3 -1 x_5_13_3_sb +1 x_6_16_3 >= 0
-1 x_5_27_3 +1 x_5_13_3_sb +1 x_6_16_3 >= 0
-1 x_5_29_0 -1 x_5_14_0_sb -1 x_6_20_0 >= -2
+1 x_5_29_0 +1 x_5_14_0_sb -1 x_6_20_0 >= 0
+1 x_5_29_0 -1 x_5_14_0_sb +1 x_6_20_0 >= 0
-1 x_5_29_0 +1 x_5_14_0_sb +1 x_6_20_0 >= 0
-1 x_5_29_1 -1 x_5_14_1_sb -1 x_6_20_1 >= -2
+1 x_5_29_1 +1 x_5_14_1_sb -1 x_6_20_1 >= 0
+1 x_5_29_1 -1 x_5_14_1_sb +1 x_6_20_1 >= 0
-1 x_5_29_1 +1 x_5_14_1_sb +1 x_6_20_1 >= 0
-1 x_5_29_2 -1 x_5_14_2_sb -1 x_6_20_2 >= -2
+1 x_5_29_2 +1 x_5_14_2_sb -1 x_6_20_2 >= 0
+1 x_5_29_2 -1 x_5_14_2_sb +1 x_6_20_2 >= 0
-1 x_5_29_2 +1 x_5_14_2_sb +1 x_6_20_2 >= 0
-1 x_5_29_3 -1 x_5_14_3_sb -1 x_6_20_3 >= -2
+1 x_5_29_3 +1 x_5_14_3_sb -1 x_6_20_3 >= 0
+1 x_5_29_3 -1 x_5_14_3_sb +1 x_6_20_3 >= 0
-1 x_5_29_3 +1 x_5_14_3_sb +1 x_6_20_3 >= 0
-1 x_5_31_0 -1 x_5_15_0_sb -1 x_6_26_0 >= -2
+1 x_5_31_0 +1 x_5_15_0_sb -1 x_6_26_0 >= 0
+1 x_5_31_0 -1 x_5_15_0_sb +1 x_6_26_0 >= 0
-1 x_5_31_0 +1 x_5_15_0_sb +1 x_6_26_0 >= 0
-1 x_5_31_1 -1 x_5_15_1_sb -1 x_6_26_1 >= -2
+1 x_5_31_1 +1 x_5_15_1_sb -1 x_6_26_1 >= 0
+1 x_5_31_1 -1 x_5_15_1_sb +1 x_6_26_1 >= 0
-1 x_5_31_1 +1 x_5_15_1_sb +1 x_6_26_1 >= 0
-1 x_5_31_2 -1 x_5_15_2_sb -1 x_6_26_2 >= -2
+1 x_5_31_2 +1 x_5_15_2_sb -1 x_6_26_2 >= 0
+1 x_5_31_2 -1 x_5_15_2_sb +1 x_6_26_2 >= 0
-1 x_5_31_2 +1 x_5_15_2_sb +1 x_6_26_2 >= 0
-1 x_5_31_3 -1 x_5_15_3_sb -1 x_6_26_3 >= -2
+1 x_5_31_3 +1 x_5_15_3_sb -1 x_6_26_3 >= 0
+1 x_5_31_3 -1 x_5_15_3_sb +1 x_6_26_3 >= 0
-1 x_5_31_3 +1 x_5_15_3_sb +1 x_6_26_3 >= 0
x_6_31_0 - x_5_0_0 = 0
x_6_31_1 - x_5_0_1 = 0
x_6_31_2 - x_5_0_2 = 0
x_6_31_3 - x_5_0_3 = 0
x_6_29_0 - x_5_2_0 = 0
x_6_29_1 - x_5_2_1 = 0
x_6_29_2 - x_5_2_2 = 0
x_6_29_3 - x_5_2_3 = 0
x_6_1_0 - x_5_4_0 = 0
x_6_1_1 - x_5_4_1 = 0
x_6_1_2 - x_5_4_2 = 0
x_6_1_3 - x_5_4_3 = 0
x_6_21_0 - x_5_6_0 = 0
x_6_21_1 - x_5_6_1 = 0
x_6_21_2 - x_5_6_2 = 0
x_6_21_3 - x_5_6_3 = 0
x_6_27_0 - x_5_8_0 = 0
x_6_27_1 - x_5_8_1 = 0
x_6_27_2 - x_5_8_2 = 0
x_6_27_3 - x_5_8_3 = 0
x_6_3_0 - x_5_10_0 = 0
x_6_3_1 - x_5_10_1 = 0
x_6_3_2 - x_5_10_2 = 0
x_6_3_3 - x_5_10_3 = 0
x_6_25_0 - x_5_12_0 = 0
x_6_25_1 - x_5_12_1 = 0
x_6_25_2 - x_5_12_2 = 0
x_6_25_3 - x_5_12_3 = 0
x_6_23_0 - x_5_14_0 = 0
x_6_23_1 - x_5_14_1 = 0
x_6_23_2 - x_5_14_2 = 0
x_6_23_3 - x_5_14_3 = 0
x_6_15_0 - x_5_16_0 = 0
x_6_15_1 - x_5_16_1 = 0
x_6_15_2 - x_5_16_2 = 0
x_6_15_3 - x_5_16_3 = 0
x_6_13_0 - x_5_18_0 = 0
x_6_13_1 - x_5_18_1 = 0
x_6_13_2 - x_5_18_2 = 0
x_6_13_3 - x_5_18_3 = 0
x_6_17_0 - x_5_20_0 = 0
x_6_17_1 - x_5_20_1 = 0
x_6_17_2 - x_5_20_2 = 0
x_6_17_3 - x_5_20_3 = 0
x_6_5_0 - x_5_22_0 = 0
x_6_5_1 - x_5_22_1 = 0
x_6_5_2 - x_5_22_2 = 0
x_6_5_3 - x_5_22_3 = 0
x_6_11_0 - x_5_24_0 = 0
x_6_11_1 - x_5_24_1 = 0
x_6_11_2 - x_5_24_2 = 0
x_6_11_3 - x_5_24_3 = 0
x_6_19_0 - x_5_26_0 = 0
x_6_19_1 - x_5_26_1 = 0
x_6_19_2 - x_5_26_2 = 0
x_6_19_3 - x_5_26_3 = 0
x_6_9_0 - x_5_28_0 = 0
x_6_9_1 - x_5_28_1 = 0
x_6_9_2 - x_5_28_2 = 0
x_6_9_3 - x_5_28_3 = 0
x_6_7_0 - x_5_30_0 = 0
x_6_7_1 - x_5_30_1 = 0
x_6_7_2 - x_5_30_2 = 0
x_6_7_3 - x_5_30_3 = 0
Binary
x_0_0_0
x_0_0_1
x_0_0_2
x_0_0_3
x_0_1_0
x_0_1_1
x_0_1_2
x_0_1_3
x_0_2_0
x_0_2_1
x_0_2_2
x_0_2_3
x_0_3_0
x_0_3_1
x_0_3_2
x_0_3_3
x_0_4_0
x_0_4_1
x_0_4_2
x_0_4_3
x_0_5_0
x_0_5_1
x_0_5_2
x_0_5_3
x_0_6_0
x_0_6_1
x_0_6_2
x_0_6_3
x_0_7_0
x_0_7_1
x_0_7_2
x_0_7_3
x_0_8_0
x_0_8_1
x_0_8_2
x_0_8_3
x_0_9_0
x_0_9_1
x_0_9_2
x_0_9_3
x_0_10_0
x_0_10_1
x_0_10_2
x_0_10_3
x_0_11_0
x_0_11_1
x_0_11_2
x_0_11_3
x_0_12_0
x_0_12_1
x_0_12_2
x_0_12_3
x_0_13_0
x_0_13_1
x_0_13_2
x_0_13_3
x_0_14_0
x_0_14_1
x_0_14_2
x_0_14_3
x_0_15_0
x_0_15_1
x_0_15_2
x_0_15_3
x_0_16_0
x_0_16_1
x_0_16_2
x_0_16_3
x_0_17_0
x_0_17_1
x_0_17_2
x_0_17_3
x_0_18_0
x_0_18_1
x_0_18_2
x_0_18_3
x_0_19_0
x_0_19_1
x_0_19_2
x_0_19_3
x_0_20_0
x_0_20_1
x_0_20_2
x_0_20_3
x_0_21_0
x_0_21_1
x_0_21_2
x_0_21_3
x_0_22_0
x_0_22_1
x_0_22_2
x_0_22_3
x_0_23_0
x_0_23_1
x_0_23_2
x_0_23_3
x_0_24_0
x_0_24_1
x_0_24_2
x_0_24_3
x_0_25_0
x_0_25_1
x_0_25_2
x_0_25_3
x_0_26_0
x_0_26_1
x_0_26_2
x_0_26_3
x_0_27_0
x_0_27_1
x_0_27_2
x_0_27_3
x_0_28_0
x_0_28_1
x_0_28_2
x_0_28_3
x_0_29_0
x_0_29_1
x_0_29_2
x_0_29_3
x_0_30_0
x_0_30_1
x_0_30_2
x_0_30_3
x_0_31_0
x_0_31_1
x_0_31_2
x_0_31_3
x_1_0_0
x_1_0_1
x_1_0_2
x_1_0_3
x_1_1_0
x_1_1_1
x_1_1_2
x_1_1_3
x_1_2_0
x_1_2_1
x_1_2_2
x_1_2_3
x_1_3_0
x_1_3_1
x_1_3_2
x_1_3_3
x_1_4_0
x_1_4_1
x_1_4_2
x_1_4_3
x_1_5_0
x_1_5_1
x_1_5_2
x_1_5_3
x_1_6_0
x_1_6_1
x_1_6_2
x_1_6_3
x_1_7_0
x_1_7_1
x_1_7_2
x_1_7_3
x_1_8_0
x_1_8_1
x_1_8_2
x_1_8_3
x_1_9_0
x_1_9_1
x_1_9_2
x_1_9_3
x_1_10_0
x_1_10_1
x_1_10_2
x_1_10_3
x_1_11_0
x_1_11_1
x_1_11_2
x_1_11_3
x_1_12_0
x_1_12_1
x_1_12_2
x_1_12_3
x_1_13_0
x_1_13_1
x_1_13_2
x_1_13_3
x_1_14_0
x_1_14_1
x_1_14_2
x_1_14_3
x_1_15_0
x_1_15_1
x_1_15_2
x_1_15_3
x_1_16_0
x_1_16_1
x_1_16_2
x_1_16_3
x_1_17_0
x_1_17_1
x_1_17_2
x_1_17_3
x_1_18_0
x_1_18_1
x_1_18_2
x_1_18_3
x_1_19_0
x_1_19_1
x_1_19_2
x_1_19_3
x_1_20_0
x_1_20_1
x_1_20_2
x_1_20_3
x_1_21_0
x_1_21_1
x_1_21_2
x_1_21_3
x_1_22_0
x_1_22_1
x_1_22_2
x_1_22_3
x_1_23_0
x_1_23_1
x_1_23_2
x_1_23_3
x_1_24_0
x_1_24_1
x_1_24_2
x_1_24_3
x_1_25_0
x_1_25_1
x_1_25_2
x_1_25_3
x_1_26_0
x_1_26_1
x_1_26_2
x_1_26_3
x_1_27_0
x_1_27_1
x_1_27_2
x_1_27_3
x_1_28_0
x_1_28_1
x_1_28_2
x_1_28_3
x_1_29_0
x_1_29_1
x_1_29_2
x_1_29_3
x_1_30_0
x_1_30_1
x_1_30_2
x_1_30_3
x_1_31_0
x_1_31_1
x_1_31_2
x_1_31_3
x_2_0_0
x_2_0_1
x_2_0_2
x_2_0_3
x_2_1_0
x_2_1_1
x_2_1_2
x_2_1_3
x_2_2_0
x_2_2_1
x_2_2_2
x_2_2_3
x_2_3_0
x_2_3_1
x_2_3_2
x_2_3_3
x_2_4_0
x_2_4_1
x_2_4_2
x_2_4_3
x_2_5_0
x_2_5_1
x_2_5_2
x_2_5_3
x_2_6_0
x_2_6_1
x_2_6_2
x_2_6_3
x_2_7_0
x_2_7_1
x_2_7_2
x_2_7_3
x_2_8_0
x_2_8_1
x_2_8_2
x_2_8_3
x_2_9_0
x_2_9_1
x_2_9_2
x_2_9_3
x_2_10_0
x_2_10_1
x_2_10_2
x_2_10_3
x_2_11_0
x_2_11_1
x_2_11_2
x_2_11_3
x_2_12_0
x_2_12_1
x_2_12_2
x_2_12_3
x_2_13_0
x_2_13_1
x_2_13_2
x_2_13_3
x_2_14_0
x_2_14_1
x_2_14_2
x_2_14_3
x_2_15_0
x_2_15_1
x_2_15_2
x_2_15_3
x_2_16_0
x_2_16_1
x_2_16_2
x_2_16_3
x_2_17_0
x_2_17_1
x_2_17_2
x_2_17_3
x_2_18_0
x_2_18_1
x_2_18_2
x_2_18_3
x_2_19_0
x_2_19_1
x_2_19_2
x_2_19_3
x_2_20_0
x_2_20_1
x_2_20_2
x_2_20_3
x_2_21_0
x_2_21_1
x_2_21_2
x_2_21_3
x_2_22_0
x_2_22_1
x_2_22_2
x_2_22_3
x_2_23_0
x_2_23_1
x_2_23_2
x_2_23_3
x_2_24_0
x_2_24_1
x_2_24_2
x_2_24_3
x_2_25_0
x_2_25_1
x_2_25_2
x_2_25_3
x_2_26_0
x_2_26_1
x_2_26_2
x_2_26_3
x_2_27_0
x_2_27_1
x_2_27_2
x_2_27_3
x_2_28_0
x_2_28_1
x_2_28_2
x_2_28_3
x_2_29_0
x_2_29_1
x_2_29_2
x_2_29_3
x_2_30_0
x_2_30_1
x_2_30_2
x_2_30_3
x_2_31_0
x_2_31_1
x_2_31_2
x_2_31_3
x_3_0_0
x_3_0_1
x_3_0_2
x_3_0_3
x_3_1_0
x_3_1_1
x_3_1_2
x_3_1_3
x_3_2_0
x_3_2_1
x_3_2_2
x_3_2_3
x_3_3_0
x_3_3_1
x_3_3_2
x_3_3_3
x_3_4_0
x_3_4_1
x_3_4_2
x_3_4_3
x_3_5_0
x_3_5_1
x_3_5_2
x_3_5_3
x_3_6_0
x_3_6_1
x_3_6_2
x_3_6_3
x_3_7_0
x_3_7_1
x_3_7_2
x_3_7_3
x_3_8_0
x_3_8_1
x_3_8_2
x_3_8_3
x_3_9_0
x_3_9_1
x_3_9_2
x_3_9_3
x_3_10_0
x_3_10_1
x_3_10_2
x_3_10_3
x_3_11_0
x_3_11_1
x_3_11_2
x_3_11_3
x_3_12_0
x_3_12_1
x_3_12_2
x_3_12_3
x_3_13_0
x_3_13_1
x_3_13_2
x_3_13_3
x_3_14_0
x_3_14_1
x_3_14_2
x_3_14_3
x_3_15_0
x_3_15_1
x_3_15_2
x_3_15_3
x_3_16_0
x_3_16_1
x_3_16_2
x_3_16_3
x_3_17_0
x_3_17_1
x_3_17_2
x_3_17_3
x_3_18_0
x_3_18_1
x_3_18_2
x_3_18_3
x_3_19_0
x_3_19_1
x_3_19_2
x_3_19_3
x_3_20_0
x_3_20_1
x_3_20_2
x_3_20_3
x_3_21_0
x_3_21_1
x_3_21_2
x_3_21_3
x_3_22_0
x_3_22_1
x_3_22_2
x_3_22_3
x_3_23_0
x_3_23_1
x_3_23_2
x_3_23_3
x_3_24_0
x_3_24_1
x_3_24_2
x_3_24_3
x_3_25_0
x_3_25_1
x_3_25_2
x_3_25_3
x_3_26_0
x_3_26_1
x_3_26_2
x_3_26_3
x_3_27_0
x_3_27_1
x_3_27_2
x_3_27_3
x_3_28_0
x_3_28_1
x_3_28_2
x_3_28_3
x_3_29_0
x_3_29_1
x_3_29_2
x_3_29_3
x_3_30_0
x_3_30_1
x_3_30_2
x_3_30_3
x_3_31_0
x_3_31_1
x_3_31_2
x_3_31_3
x_4_0_0
x_4_0_1
x_4_0_2
x_4_0_3
x_4_1_0
x_4_1_1
x_4_1_2
x_4_1_3
x_4_2_0
x_4_2_1
x_4_2_2
x_4_2_3
x_4_3_0
x_4_3_1
x_4_3_2
x_4_3_3
x_4_4_0
x_4_4_1
x_4_4_2
x_4_4_3
x_4_5_0
x_4_5_1
x_4_5_2
x_4_5_3
x_4_6_0
x_4_6_1
x_4_6_2
x_4_6_3
x_4_7_0
x_4_7_1
x_4_7_2
x_4_7_3
x_4_8_0
x_4_8_1
x_4_8_2
x_4_8_3
x_4_9_0
x_4_9_1
x_4_9_2
x_4_9_3
x_4_10_0
x_4_10_1
x_4_10_2
x_4_10_3
x_4_11_0
x_4_11_1
x_4_11_2
x_4_11_3
x_4_12_0
x_4_12_1
x_4_12_2
x_4_12_3
x_4_13_0
x_4_13_1
x_4_13_2
x_4_13_3
x_4_14_0
x_4_14_1
x_4_14_2
x_4_14_3
x_4_15_0
x_4_15_1
x_4_15_2
x_4_15_3
x_4_16_0
x_4_16_1
x_4_16_2
x_4_16_3
x_4_17_0
x_4_17_1
x_4_17_2
x_4_17_3
x_4_18_0
x_4_18_1
x_4_18_2
x_4_18_3
x_4_19_0
x_4_19_1
x_4_19_2
x_4_19_3
x_4_20_0
x_4_20_1
x_4_20_2
x_4_20_3
x_4_21_0
x_4_21_1
x_4_21_2
x_4_21_3
x_4_22_0
x_4_22_1
x_4_22_2
x_4_22_3
x_4_23_0
x_4_23_1
x_4_23_2
x_4_23_3
x_4_24_0
x_4_24_1
x_4_24_2
x_4_24_3
x_4_25_0
x_4_25_1
x_4_25_2
x_4_25_3
x_4_26_0
x_4_26_1
x_4_26_2
x_4_26_3
x_4_27_0
x_4_27_1
x_4_27_2
x_4_27_3
x_4_28_0
x_4_28_1
x_4_28_2
x_4_28_3
x_4_29_0
x_4_29_1
x_4_29_2
x_4_29_3
x_4_30_0
x_4_30_1
x_4_30_2
x_4_30_3
x_4_31_0
x_4_31_1
x_4_31_2
x_4_31_3
x_5_0_0
x_5_0_1
x_5_0_2
x_5_0_3
x_5_1_0
x_5_1_1
x_5_1_2
x_5_1_3
x_5_2_0
x_5_2_1
x_5_2_2
x_5_2_3
x_5_3_0
x_5_3_1
x_5_3_2
x_5_3_3
x_5_4_0
x_5_4_1
x_5_4_2
x_5_4_3
x_5_5_0
x_5_5_1
x_5_5_2
x_5_5_3
x_5_6_0
x_5_6_1
x_5_6_2
x_5_6_3
x_5_7_0
x_5_7_1
x_5_7_2
x_5_7_3
x_5_8_0
x_5_8_1
x_5_8_2
x_5_8_3
x_5_9_0
x_5_9_1
x_5_9_2
x_5_9_3
x_5_10_0
x_5_10_1
x_5_10_2
x_5_10_3
x_5_11_0
x_5_11_1
x_5_11_2
x_5_11_3
x_5_12_0
x_5_12_1
x_5_12_2
x_5_12_3
x_5_13_0
x_5_13_1
x_5_13_2
x_5_13_3
x_5_14_0
x_5_14_1
x_5_14_2
x_5_14_3
x_5_15_0
x_5_15_1
x_5_15_2
x_5_15_3
x_5_16_0
x_5_16_1
x_5_16_2
x_5_16_3
x_5_17_0
x_5_17_1
x_5_17_2
x_5_17_3
x_5_18_0
x_5_18_1
x_5_18_2
x_5_18_3
x_5_19_0
x_5_19_1
x_5_19_2
x_5_19_3
x_5_20_0
x_5_20_1
x_5_20_2
x_5_20_3
x_5_21_0
x_5_21_1
x_5_21_2
x_5_21_3
x_5_22_0
x_5_22_1
x_5_22_2
x_5_22_3
x_5_23_0
x_5_23_1
x_5_23_2
x_5_23_3
x_5_24_0
x_5_24_1
x_5_24_2
x_5_24_3
x_5_25_0
x_5_25_1
x_5_25_2
x_5_25_3
x_5_26_0
x_5_26_1
x_5_26_2
x_5_26_3
x_5_27_0
x_5_27_1
x_5_27_2
x_5_27_3
x_5_28_0
x_5_28_1
x_5_28_2
x_5_28_3
x_5_29_0
x_5_29_1
x_5_29_2
x_5_29_3
x_5_30_0
x_5_30_1
x_5_30_2
x_5_30_3
x_5_31_0
x_5_31_1
x_5_31_2
x_5_31_3
x_6_0_0
x_6_0_1
x_6_0_2
x_6_0_3
x_6_1_0
x_6_1_1
x_6_1_2
x_6_1_3
x_6_2_0
x_6_2_1
x_6_2_2
x_6_2_3
x_6_3_0
x_6_3_1
x_6_3_2
x_6_3_3
x_6_4_0
x_6_4_1
x_6_4_2
x_6_4_3
x_6_5_0
x_6_5_1
x_6_5_2
x_6_5_3
x_6_6_0
x_6_6_1
x_6_6_2
x_6_6_3
x_6_7_0
x_6_7_1
x_6_7_2
x_6_7_3
x_6_8_0
x_6_8_1
x_6_8_2
x_6_8_3
x_6_9_0
x_6_9_1
x_6_9_2
x_6_9_3
x_6_10_0
x_6_10_1
x_6_10_2
x_6_10_3
x_6_11_0
x_6_11_1
x_6_11_2
x_6_11_3
x_6_12_0
x_6_12_1
x_6_12_2
x_6_12_3
x_6_13_0
x_6_13_1
x_6_13_2
x_6_13_3
x_6_14_0
x_6_14_1
x_6_14_2
x_6_14_3
x_6_15_0
x_6_15_1
x_6_15_2
x_6_15_3
x_6_16_0
x_6_16_1
x_6_16_2
x_6_16_3
x_6_17_0
x_6_17_1
x_6_17_2
x_6_17_3
x_6_18_0
x_6_18_1
x_6_18_2
x_6_18_3
x_6_19_0
x_6_19_1
x_6_19_2
x_6_19_3
x_6_20_0
x_6_20_1
x_6_20_2
x_6_20_3
x_6_21_0
x_6_21_1
x_6_21_2
x_6_21_3
x_6_22_0
x_6_22_1
x_6_22_2
x_6_22_3
x_6_23_0
x_6_23_1
x_6_23_2
x_6_23_3
x_6_24_0
x_6_24_1
x_6_24_2
x_6_24_3
x_6_25_0
x_6_25_1
x_6_25_2
x_6_25_3
x_6_26_0
x_6_26_1
x_6_26_2
x_6_26_3
x_6_27_0
x_6_27_1
x_6_27_2
x_6_27_3
x_6_28_0
x_6_28_1
x_6_28_2
x_6_28_3
x_6_29_0
x_6_29_1
x_6_29_2
x_6_29_3
x_6_30_0
x_6_30_1
x_6_30_2
x_6_30_3
x_6_31_0
x_6_31_1
x_6_31_2
x_6_31_3
x_0_0_0_sb
x_0_0_1_sb
x_0_0_2_sb
x_0_0_3_sb
x_0_1_0_sb
x_0_1_1_sb
x_0_1_2_sb
x_0_1_3_sb
x_0_2_0_sb
x_0_2_1_sb
x_0_2_2_sb
x_0_2_3_sb
x_0_3_0_sb
x_0_3_1_sb
x_0_3_2_sb
x_0_3_3_sb
x_0_4_0_sb
x_0_4_1_sb
x_0_4_2_sb
x_0_4_3_sb
x_0_5_0_sb
x_0_5_1_sb
x_0_5_2_sb
x_0_5_3_sb
x_0_6_0_sb
x_0_6_1_sb
x_0_6_2_sb
x_0_6_3_sb
x_0_7_0_sb
x_0_7_1_sb
x_0_7_2_sb
x_0_7_3_sb
x_0_8_0_sb
x_0_8_1_sb
x_0_8_2_sb
x_0_8_3_sb
x_0_9_0_sb
x_0_9_1_sb
x_0_9_2_sb
x_0_9_3_sb
x_0_10_0_sb
x_0_10_1_sb
x_0_10_2_sb
x_0_10_3_sb
x_0_11_0_sb
x_0_11_1_sb
x_0_11_2_sb
x_0_11_3_sb
x_0_12_0_sb
x_0_12_1_sb
x_0_12_2_sb
x_0_12_3_sb
x_0_13_0_sb
x_0_13_1_sb
x_0_13_2_sb
x_0_13_3_sb
x_0_14_0_sb
x_0_14_1_sb
x_0_14_2_sb
x_0_14_3_sb
x_0_15_0_sb
x_0_15_1_sb
x_0_15_2_sb
x_0_15_3_sb
x_1_0_0_sb
x_1_0_1_sb
x_1_0_2_sb
x_1_0_3_sb
x_1_1_0_sb
x_1_1_1_sb
x_1_1_2_sb
x_1_1_3_sb
x_1_2_0_sb
x_1_2_1_sb
x_1_2_2_sb
x_1_2_3_sb
x_1_3_0_sb
x_1_3_1_sb
x_1_3_2_sb
x_1_3_3_sb
x_1_4_0_sb
x_1_4_1_sb
x_1_4_2_sb
x_1_4_3_sb
x_1_5_0_sb
x_1_5_1_sb
x_1_5_2_sb
x_1_5_3_sb
x_1_6_0_sb
x_1_6_1_sb
x_1_6_2_sb
x_1_6_3_sb
x_1_7_0_sb
x_1_7_1_sb
x_1_7_2_sb
x_1_7_3_sb
x_1_8_0_sb
x_1_8_1_sb
x_1_8_2_sb
x_1_8_3_sb
x_1_9_0_sb
x_1_9_1_sb
x_1_9_2_sb
x_1_9_3_sb
x_1_10_0_sb
x_1_10_1_sb
x_1_10_2_sb
x_1_10_3_sb
x_1_11_0_sb
x_1_11_1_sb
x_1_11_2_sb
x_1_11_3_sb
x_1_12_0_sb
x_1_12_1_sb
x_1_12_2_sb
x_1_12_3_sb
x_1_13_0_sb
x_1_13_1_sb
x_1_13_2_sb
x_1_13_3_sb
x_1_14_0_sb
x_1_14_1_sb
x_1_14_2_sb
x_1_14_3_sb
x_1_15_0_sb
x_1_15_1_sb
x_1_15_2_sb
x_1_15_3_sb
x_2_0_0_sb
x_2_0_1_sb
x_2_0_2_sb
x_2_0_3_sb
x_2_1_0_sb
x_2_1_1_sb
x_2_1_2_sb
x_2_1_3_sb
x_2_2_0_sb
x_2_2_1_sb
x_2_2_2_sb
x_2_2_3_sb
x_2_3_0_sb
x_2_3_1_sb
x_2_3_2_sb
x_2_3_3_sb
x_2_4_0_sb
x_2_4_1_sb
x_2_4_2_sb
x_2_4_3_sb
x_2_5_0_sb
x_2_5_1_sb
x_2_5_2_sb
x_2_5_3_sb
x_2_6_0_sb
x_2_6_1_sb
x_2_6_2_sb
x_2_6_3_sb
x_2_7_0_sb
x_2_7_1_sb
x_2_7_2_sb
x_2_7_3_sb
x_2_8_0_sb
x_2_8_1_sb
x_2_8_2_sb
x_2_8_3_sb
x_2_9_0_sb
x_2_9_1_sb
x_2_9_2_sb
x_2_9_3_sb
x_2_10_0_sb
x_2_10_1_sb
x_2_10_2_sb
x_2_10_3_sb
x_2_11_0_sb
x_2_11_1_sb
x_2_11_2_sb
x_2_11_3_sb
x_2_12_0_sb
x_2_12_1_sb
x_2_12_2_sb
x_2_12_3_sb
x_2_13_0_sb
x_2_13_1_sb
x_2_13_2_sb
x_2_13_3_sb
x_2_14_0_sb
x_2_14_1_sb
x_2_14_2_sb
x_2_14_3_sb
x_2_15_0_sb
x_2_15_1_sb
x_2_15_2_sb
x_2_15_3_sb
x_3_0_0_sb
x_3_0_1_sb
x_3_0_2_sb
x_3_0_3_sb
x_3_1_0_sb
x_3_1_1_sb
x_3_1_2_sb
x_3_1_3_sb
x_3_2_0_sb
x_3_2_1_sb
x_3_2_2_sb
x_3_2_3_sb
x_3_3_0_sb
x_3_3_1_sb
x_3_3_2_sb
x_3_3_3_sb
x_3_4_0_sb
x_3_4_1_sb
x_3_4_2_sb
x_3_4_3_sb
x_3_5_0_sb
x_3_5_1_sb
x_3_5_2_sb
x_3_5_3_sb
x_3_6_0_sb
x_3_6_1_sb
x_3_6_2_sb
x_3_6_3_sb
x_3_7_0_sb
x_3_7_1_sb
x_3_7_2_sb
x_3_7_3_sb
x_3_8_0_sb
x_3_8_1_sb
x_3_8_2_sb
x_3_8_3_sb
x_3_9_0_sb
x_3_9_1_sb
x_3_9_2_sb
x_3_9_3_sb
x_3_10_0_sb
x_3_10_1_sb
x_3_10_2_sb
x_3_10_3_sb
x_3_11_0_sb
x_3_11_1_sb
x_3_11_2_sb
x_3_11_3_sb
x_3_12_0_sb
x_3_12_1_sb
x_3_12_2_sb
x_3_12_3_sb
x_3_13_0_sb
x_3_13_1_sb
x_3_13_2_sb
x_3_13_3_sb
x_3_14_0_sb
x_3_14_1_sb
x_3_14_2_sb
x_3_14_3_sb
x_3_15_0_sb
x_3_15_1_sb
x_3_15_2_sb
x_3_15_3_sb
x_4_0_0_sb
x_4_0_1_sb
x_4_0_2_sb
x_4_0_3_sb
x_4_1_0_sb
x_4_1_1_sb
x_4_1_2_sb
x_4_1_3_sb
x_4_2_0_sb
x_4_2_1_sb
x_4_2_2_sb
x_4_2_3_sb
x_4_3_0_sb
x_4_3_1_sb
x_4_3_2_sb
x_4_3_3_sb
x_4_4_0_sb
x_4_4_1_sb
x_4_4_2_sb
x_4_4_3_sb
x_4_5_0_sb
x_4_5_1_sb
x_4_5_2_sb
x_4_5_3_sb
x_4_6_0_sb
x_4_6_1_sb
x_4_6_2_sb
x_4_6_3_sb
x_4_7_0_sb
x_4_7_1_sb
x_4_7_2_sb
x_4_7_3_sb
x_4_8_0_sb
x_4_8_1_sb
x_4_8_2_sb
x_4_8_3_sb
x_4_9_0_sb
x_4_9_1_sb
x_4_9_2_sb
x_4_9_3_sb
x_4_10_0_sb
x_4_10_1_sb
x_4_10_2_sb
x_4_10_3_sb
x_4_11_0_sb
x_4_11_1_sb
x_4_11_2_sb
x_4_11_3_sb
x_4_12_0_sb
x_4_12_1_sb
x_4_12_2_sb
x_4_12_3_sb
x_4_13_0_sb
x_4_13_1_sb
x_4_13_2_sb
x_4_13_3_sb
x_4_14_0_sb
x_4_14_1_sb
x_4_14_2_sb
x_4_14_3_sb
x_4_15_0_sb
x_4_15_1_sb
x_4_15_2_sb
x_4_15_3_sb
x_5_0_0_sb
x_5_0_1_sb
x_5_0_2_sb
x_5_0_3_sb
x_5_1_0_sb
x_5_1_1_sb
x_5_1_2_sb
x_5_1_3_sb
x_5_2_0_sb
x_5_2_1_sb
x_5_2_2_sb
x_5_2_3_sb
x_5_3_0_sb
x_5_3_1_sb
x_5_3_2_sb
x_5_3_3_sb
x_5_4_0_sb
x_5_4_1_sb
x_5_4_2_sb
x_5_4_3_sb
x_5_5_0_sb
x_5_5_1_sb
x_5_5_2_sb
x_5_5_3_sb
x_5_6_0_sb
x_5_6_1_sb
x_5_6_2_sb
x_5_6_3_sb
x_5_7_0_sb
x_5_7_1_sb
x_5_7_2_sb
x_5_7_3_sb
x_5_8_0_sb
x_5_8_1_sb
x_5_8_2_sb
x_5_8_3_sb
x_5_9_0_sb
x_5_9_1_sb
x_5_9_2_sb
x_5_9_3_sb
x_5_10_0_sb
x_5_10_1_sb
x_5_10_2_sb
x_5_10_3_sb
x_5_11_0_sb
x_5_11_1_sb
x_5_11_2_sb
x_5_11_3_sb
x_5_12_0_sb
x_5_12_1_sb
x_5_12_2_sb
x_5_12_3_sb
x_5_13_0_sb
x_5_13_1_sb
x_5_13_2_sb
x_5_13_3_sb
x_5_14_0_sb
x_5_14_1_sb
x_5_14_2_sb
x_5_14_3_sb
x_5_15_0_sb
x_5_15_1_sb
x_5_15_2_sb
x_5_15_3_sb
